LAMMPS (3 Mar 2020)
# 3d Lennard-Jones melt

# variable and loop commands for the epsilon loop

units		lj #reduced unit
atom_style	atomic

#lattice type is chosen as fcc
lattice		fcc 0.8442
Lattice spacing in x,y,z = 1.6796 1.6796 1.6796

#defining the region of the block taken
region		box block 0 12 0 12 0 12

#2 types of atom are used in the simulation
create_box	2 box
Created orthogonal box = (0 0 0) to (20.1552 20.1552 20.1552)
  1 by 1 by 2 MPI processor grid

#defining the region to make nano particle
region      liq sphere 6 6 6 2     #speherical region is generated to create nanoparticle
create_atoms	1 region liq        # created noparticle inside the specified region
Created 141 atoms
  create_atoms CPU = 0.000999168 secs


#defining the region to fill the remaning space with other atom
region      liqbox sphere 6 6 6 2 side out #remaining space outside the sphere
create_atoms 2 region liqbox   #2nd type of atom created in the defined region
Created 6771 atoms
  create_atoms CPU = 0.00221518 secs

#masses defined for both atom type
mass		* 1.0

group   np type 1
141 atoms in group np
group   liq type 2
6771 atoms in group liq

velocity	liq create 1.0 87287

pair_style	lj/cut 3.5

#Setting the loop based on the epsilon
label       epsloop  #loop named as epsloop
variable    a loop 10   #loop parameter defined
variable    eps equal 0.5+($a-1)*0.5
variable    eps equal 0.5+(1-1)*0.5
if "${eps} > 2" then "variable eps equal 2.0+($a-4)*2.0" #epsilon value will increase at rate of 0.5 from 0.5 till 2.0


#Seeting the pair coefficient for all types of interaction
pair_coeff	1 1 10.0 1.0 3.5  # epsilon sigma and rcut is defined repectively
pair_coeff	1 2 ${eps} 1.0 3.5
pair_coeff	1 2 0.5 1.0 3.5
pair_coeff	2 2 0.8 1.0 3.5 # Use epsilon(nanoparticle)=10.0


minimize  1.0e-4 1.0e-6 100 1000
WARNING: Using 'neigh_modify every 1 delay 0 check yes' setting during minimization (../min.cpp:190)
Neighbor list info ...
  update every 1 steps, delay 0 steps, check yes
  max neighbors/atom: 2000, page size: 100000
  master list distance cutoff = 3.8
  ghost atom cutoff = 3.8
  binsize = 1.9, bins = 11 11 11
  1 neighbor lists, perpetual/occasional/extra = 1 0 0
  (1) pair lj/cut, perpetual
      attributes: half, newton on
      pair build: half/bin/atomonly/newton
      stencil: half/bin/3d/newton
      bin: standard
Per MPI rank memory allocation (min/avg/max) = 5.796 | 5.796 | 5.796 Mbytes
Step Temp E_pair E_mol TotEng Press 
       0   0.97959774   -6.5333888            0   -5.0642048    -5.340646 
       5   0.97959774   -6.6832008            0   -5.2140167   -4.5690318 
Loop time of 0.0869904 on 2 procs for 5 steps with 6912 atoms

99.4% CPU use with 2 MPI tasks x no OpenMP threads

Minimization stats:
  Stopping criterion = energy tolerance
  Energy initial, next-to-last, final = 
        -6.53338880823     -6.68260601779     -6.68320075834
  Force two-norm initial, final = 718.609 171.522
  Force max component initial, final = 73.9714 14.048
  Final line search alpha, max atom move = 0.00574099 0.0806497
  Iterations, force evaluations = 5 9

MPI task timing breakdown:
Section |  min time  |  avg time  |  max time  |%varavg| %total
---------------------------------------------------------------
Pair    | 0.061594   | 0.062098   | 0.062602   |   0.2 | 71.38
Neigh   | 0.021102   | 0.021208   | 0.021314   |   0.1 | 24.38
Comm    | 0.0020628  | 0.002459   | 0.0028552  |   0.8 |  2.83
Output  | 0          | 0          | 0          |   0.0 |  0.00
Modify  | 0          | 0          | 0          |   0.0 |  0.00
Other   |            | 0.001226   |            |       |  1.41

Nlocal:    3456 ave 3456 max 3456 min
Histogram: 2 0 0 0 0 0 0 0 0 0
Nghost:    7979 ave 7979 max 7979 min
Histogram: 2 0 0 0 0 0 0 0 0 0
Neighs:    345168 ave 345268 max 345068 min
Histogram: 1 0 0 0 0 0 0 0 0 1

Total # of neighbors = 690336
Ave neighs/atom = 99.875
Neighbor list builds = 3
Dangerous builds = 1

neighbor	0.3 bin   #skin factor is taken to 0.3
neigh_modify	every 20 delay 0 check no
timestep 0.005
variable nthermo equal 1000
variable temp equal 1.0
variable tdamp equal 1.0
variable pext equal 1.0
variable pdamp equal 10.0
variable Nevery equal 1000
variable Nfreq equal 100000
variable Nrepeat equal 100
reset_timestep 0

#Using Npt to Calculate the rdf

fix 		intnpt all npt temp ${temp} ${temp} ${tdamp} iso ${pext} ${pext} ${pdamp}
fix 		intnpt all npt temp 1 ${temp} ${tdamp} iso ${pext} ${pext} ${pdamp}
fix 		intnpt all npt temp 1 1 ${tdamp} iso ${pext} ${pext} ${pdamp}
fix 		intnpt all npt temp 1 1 1 iso ${pext} ${pext} ${pdamp}
fix 		intnpt all npt temp 1 1 1 iso 1 ${pext} ${pdamp}
fix 		intnpt all npt temp 1 1 1 iso 1 1 ${pdamp}
fix 		intnpt all npt temp 1 1 1 iso 1 1 10
dump		id all atom 1000 out.dump.npt.${eps}.lammpstrj
dump		id all atom 1000 out.dump.npt.0.5.lammpstrj
thermo		${nthermo}
thermo		1000
thermo_style custom step pe ke etotal press temp vol density
restart 25000 restartnpt1.data restartnpt2.data
run		  50000
Per MPI rank memory allocation (min/avg/max) = 5.303 | 5.303 | 5.303 Mbytes
Step PotEng KinEng TotEng Press Temp Volume Density 
       0   -6.6832008     1.469184   -5.2140167   -4.5690318   0.97959774    8187.6333       0.8442 
    1000   -5.7288656    1.2797669   -4.4490987    1.8674656   0.85330138    7917.4468   0.87300871 
    2000   -5.1903853    1.4609422    -3.729443    1.5830022   0.97410241    8735.2287   0.79127866 
    3000   -4.9277901    1.4926243   -3.4351657    1.1632335   0.99522686    9300.7687   0.74316438 
    4000   -4.8462343    1.4965052   -3.3497291   0.93062048   0.99781446    9538.2464   0.72466151 
    5000   -4.8434438     1.505529   -3.3379148   0.93079243    1.0038312    9559.9425    0.7230169 
    6000   -4.8422646    1.5005097   -3.3417549    1.0612747    1.0004846    9543.7344    0.7242448 
    7000   -4.8397747    1.4922668   -3.3475079   0.99046605    0.9949885    9539.5954   0.72455903 
    8000   -4.8423344    1.4847704    -3.357564    1.0382616   0.98999015    9524.8107   0.72568372 
    9000    -4.827414    1.4865484   -3.3408656    1.0549823   0.99117564    9543.1962   0.72428564 
   10000   -4.8550435    1.5055296   -3.3495139   0.98375845    1.0038316    9512.2425   0.72664253 
   11000   -4.8636465    1.5128878   -3.3507586   0.97293308    1.0087378    9506.8241   0.72705668 
   12000   -4.8298446    1.4826853   -3.3471593    1.0892566   0.98859991    9513.4708   0.72654872 
   13000   -4.8370176    1.5116891   -3.3253285   0.95161185    1.0079385    9552.7394   0.72356208 
   14000   -4.8688916    1.5197289   -3.3491627    1.0030853    1.0132992    9489.8992   0.72835336 
   15000   -4.8499392    1.5117278   -3.3382114   0.94876551    1.0079644    9529.4782   0.72532828 
   16000    -4.835141    1.5017389   -3.3334022   0.94669101    1.0013041     9576.855   0.72174007 
   17000   -4.8670014    1.4817329   -3.3852685   0.99135114   0.98796487    9478.9303    0.7291962 
   18000   -4.8329667    1.5227249   -3.3102419   0.90603974    1.0152968    9599.0352   0.72007237 
   19000   -4.8457497    1.4941251   -3.3516246    0.9680769   0.99622755    9531.5242   0.72517258 
   20000    -4.874386    1.4975025   -3.3768835   0.94797937   0.99847946    9484.2268   0.72878898 
   21000   -4.8405136    1.4865084   -3.3540052    1.0206155     0.991149    9550.0264   0.72376764 
   22000    -4.866783    1.5065224   -3.3602606   0.96977114    1.0044936    9528.6336   0.72539257 
   23000   -4.8851184    1.4900841   -3.3950343   0.96620046   0.99353314    9473.1103    0.7296442 
   24000    -4.863723     1.515041    -3.348682   0.96593713    1.0101735    9513.2354    0.7265667 
   25000   -4.8325441    1.5030921    -3.329452    1.0244392    1.0022064    9574.8058   0.72189454 
   26000   -4.8639581    1.4828522   -3.3811059   0.94739884   0.98871116    9517.2107   0.72626321 
   27000   -4.8570135    1.4984151   -3.3585984    0.9384776   0.99908793    9532.9235   0.72506614 
   28000   -4.8387802    1.5110811   -3.3276991   0.95709168    1.0075331    9581.6854   0.72137622 
   29000   -4.8571882    1.4799534   -3.3772348    1.1326579   0.98677837    9451.4316   0.73131778 
   30000   -4.8363882    1.5038916   -3.3324966   0.97990281    1.0027395    9556.0117   0.72331431 
   31000   -4.8153537    1.4949434   -3.3204104   0.99959707   0.99677312    9568.1186   0.72239907 
   32000   -4.8622342    1.5017432    -3.360491   0.97495983     1.001307    9509.8684   0.72682394 
   33000   -4.8393131    1.4866759   -3.3526372    0.9607315   0.99126069    9567.1405   0.72247293 
   34000   -4.8448885    1.4829047   -3.3619838   0.97723828   0.98874616    9545.0322   0.72414633 
   35000   -4.8758762    1.5005648   -3.3753114   0.99535645    1.0005213    9459.4256   0.73069976 
   36000   -4.8380724    1.4967661   -3.3413062    1.0144211   0.99798846    9534.5185   0.72494484 
   37000   -4.8605042    1.5145944   -3.3459098    1.0794857    1.0098757    9491.7605   0.72821054 
   38000   -4.8531403    1.5127077   -3.3404326    0.9977892    1.0086177    9528.9709   0.72536689 
   39000   -4.8476305    1.5057523   -3.3418782    1.1043208    1.0039801    9501.7123   0.72744783 
   40000   -4.8418764    1.5049402   -3.3369362    1.0728697    1.0034387    9511.8833   0.72666998 
   41000   -4.8365732    1.5131296   -3.3234436    1.0017834     1.008899    9553.5718   0.72349903 
   42000   -4.8398392    1.5169482   -3.3228911   0.99309156    1.0114451    9558.9573   0.72309142 
   43000   -4.8430667    1.4968969   -3.3461698    1.0407498   0.99807565     9526.679    0.7255414 
   44000   -4.8248165    1.4922413   -3.3325753    1.0295376   0.99497147     9547.358   0.72396992 
   45000   -4.8510745    1.5002065   -3.3508681    1.0143712    1.0002824    9511.6678   0.72668644 
   46000   -4.8266486    1.4778786     -3.34877    1.1018612   0.98539498    9542.6691   0.72432565 
   47000   -4.8847483    1.5224328   -3.3623155    1.1296586     1.015102    9426.8489   0.73322486 
   48000   -4.8298538    1.5053301   -3.3245237   0.99113315    1.0036986    9563.6432   0.72273712 
   49000   -4.8313674    1.5070257   -3.3243417    1.1241039    1.0048291    9504.3283   0.72724761 
   50000    -4.846139    1.5042702   -3.3418687    1.0488838    1.0029919    9519.0187   0.72612526 
Loop time of 279.509 on 2 procs for 50000 steps with 6912 atoms

Performance: 77278.325 tau/day, 178.885 timesteps/s
99.2% CPU use with 2 MPI tasks x no OpenMP threads

MPI task timing breakdown:
Section |  min time  |  avg time  |  max time  |%varavg| %total
---------------------------------------------------------------
Pair    | 229.92     | 234.98     | 240.04     |  33.0 | 84.07
Neigh   | 24.761     | 25.04      | 25.318     |   5.6 |  8.96
Comm    | 5.9568     | 11.291     | 16.626     | 158.8 |  4.04
Output  | 0.17879    | 0.17907    | 0.17934    |   0.1 |  0.06
Modify  | 7.3613     | 7.3716     | 7.3819     |   0.4 |  2.64
Other   |            | 0.6483     |            |       |  0.23

Nlocal:    3456 ave 3457 max 3455 min
Histogram: 1 0 0 0 0 0 0 0 0 1
Nghost:    7408.5 ave 7437 max 7380 min
Histogram: 1 0 0 0 0 0 0 0 0 1
Neighs:    286399 ave 290845 max 281953 min
Histogram: 1 0 0 0 0 0 0 0 0 1

Total # of neighbors = 572798
Ave neighs/atom = 82.8701
Neighbor list builds = 2500
Dangerous builds not checked
unfix   intnpt
undump  id


#Using Nvt to calculate the rdf

fix         intnvt all nvt temp ${temp} ${temp} ${tdamp}
fix         intnvt all nvt temp 1 ${temp} ${tdamp}
fix         intnvt all nvt temp 1 1 ${tdamp}
fix         intnvt all nvt temp 1 1 1
compute     rdfnvt all rdf 100 1 1 1 2 2 2
fix         rdfnvt all ave/time ${Nevery} ${Nrepeat} ${Nfreq} c_rdfnvt[*] file systemnvt.rdf.${eps} mode vector ave window 2
fix         rdfnvt all ave/time 1000 ${Nrepeat} ${Nfreq} c_rdfnvt[*] file systemnvt.rdf.${eps} mode vector ave window 2
fix         rdfnvt all ave/time 1000 100 ${Nfreq} c_rdfnvt[*] file systemnvt.rdf.${eps} mode vector ave window 2
fix         rdfnvt all ave/time 1000 100 100000 c_rdfnvt[*] file systemnvt.rdf.${eps} mode vector ave window 2
fix         rdfnvt all ave/time 1000 100 100000 c_rdfnvt[*] file systemnvt.rdf.0.5 mode vector ave window 2
dump        idnvt all atom 1000 out.dump.nvt.${eps}.lammpstrj
dump        idnvt all atom 1000 out.dump.nvt.0.5.lammpstrj
thermo      ${nthermo}
thermo      1000
thermo_style custom step pe ke etotal press temp vol density
restart     100000 restartnvt1.data restartnvt2.data
run         200000
Neighbor list info ...
  update every 20 steps, delay 0 steps, check no
  max neighbors/atom: 2000, page size: 100000
  master list distance cutoff = 3.8
  ghost atom cutoff = 3.8
  binsize = 1.9, bins = 12 12 12
  2 neighbor lists, perpetual/occasional/extra = 1 1 0
  (1) pair lj/cut, perpetual
      attributes: half, newton on
      pair build: half/bin/atomonly/newton
      stencil: half/bin/3d/newton
      bin: standard
  (2) compute rdf, occasional, copy from (1)
      attributes: half, newton on
      pair build: copy
      stencil: none
      bin: none
Per MPI rank memory allocation (min/avg/max) = 4.924 | 4.924 | 4.924 Mbytes
Step PotEng KinEng TotEng Press Temp Volume Density 
   50000    -4.846139    1.5042702   -3.3418687    1.0488838    1.0029919    9519.0187   0.72612526 
   51000   -4.8428663    1.5031864   -3.3396799   0.99122992    1.0022693    9519.0187   0.72612526 
   52000   -4.8525245    1.5298917   -3.3226328    1.0519695    1.0200754    9519.0187   0.72612526 
   53000   -4.8550082    1.5193816   -3.3356266   0.95405779    1.0130677    9519.0187   0.72612526 
   54000   -4.8541635     1.506171   -3.3479925    1.0289042    1.0042593    9519.0187   0.72612526 
   55000   -4.8476603    1.4864404   -3.3612199    1.0260311   0.99110365    9519.0187   0.72612526 
   56000   -4.8615378    1.4915205   -3.3700173   0.94158612    0.9944909    9519.0187   0.72612526 
   57000   -4.8379029    1.4850348   -3.3528681   0.98028725   0.99016645    9519.0187   0.72612526 
   58000   -4.8570819    1.4880469    -3.369035   0.96152475   0.99217481    9519.0187   0.72612526 
   59000   -4.8611317    1.4632324   -3.3978993   0.94469844   0.97562941    9519.0187   0.72612526 
   60000   -4.8412717    1.4752857    -3.365986    1.0280679   0.98366608    9519.0187   0.72612526 
   61000   -4.8333095    1.4684249   -3.3648846    1.1176892   0.97909158    9519.0187   0.72612526 
   62000   -4.8654712    1.4873164   -3.3781548   0.95304922   0.99168774    9519.0187   0.72612526 
   63000   -4.8469692    1.4889361   -3.3580331   0.98635996   0.99276766    9519.0187   0.72612526 
   64000   -4.8665886    1.5292867   -3.3373019   0.99480937     1.019672    9519.0187   0.72612526 
   65000   -4.8481007    1.5145877    -3.333513      1.00972    1.0098713    9519.0187   0.72612526 
   66000   -4.8492121     1.500856    -3.348356    1.0315648    1.0007155    9519.0187   0.72612526 
   67000    -4.850555    1.5254153   -3.3251398   0.99895048    1.0170907    9519.0187   0.72612526 
   68000   -4.8527286    1.5039879   -3.3487407    0.9662162    1.0028037    9519.0187   0.72612526 
   69000   -4.8518005    1.4955091   -3.3562914   0.96827619   0.99715031    9519.0187   0.72612526 
   70000   -4.8750985    1.5006646   -3.3744339   0.98343442    1.0005878    9519.0187   0.72612526 
   71000   -4.8470448    1.4820478    -3.364997   0.99256363   0.98817482    9519.0187   0.72612526 
   72000   -4.8545318     1.499549   -3.3549827   0.95235333   0.99984399    9519.0187   0.72612526 
   73000   -4.8684339    1.5132492   -3.3551848   0.99550156    1.0089787    9519.0187   0.72612526 
   74000   -4.8316891     1.507176   -3.3245131    1.0920474    1.0049294    9519.0187   0.72612526 
   75000   -4.8489675    1.5151889   -3.3337786    1.0932924    1.0102721    9519.0187   0.72612526 
   76000   -4.8367088    1.5025429   -3.3341659      1.03158    1.0018402    9519.0187   0.72612526 
   77000   -4.8523901    1.5154439   -3.3369461    1.0306183    1.0104421    9519.0187   0.72612526 
   78000   -4.8447154     1.526011   -3.3187044    1.0946558    1.0174879    9519.0187   0.72612526 
   79000   -4.8466292    1.5068183   -3.3398109    1.0515787    1.0046909    9519.0187   0.72612526 
   80000   -4.8628823    1.4964776   -3.3664047   0.98841808   0.99779611    9519.0187   0.72612526 
   81000   -4.8628022    1.5032138   -3.3595883   0.93537307    1.0022876    9519.0187   0.72612526 
   82000   -4.8656633    1.4909291   -3.3747342   0.92715628   0.99409657    9519.0187   0.72612526 
   83000   -4.8672698    1.4821886   -3.3850812   0.91375471   0.98826868    9519.0187   0.72612526 
   84000   -4.8592876    1.4656783   -3.3936094   0.94199544   0.97726023    9519.0187   0.72612526 
   85000   -4.8581739    1.4850541   -3.3731198   0.99664219   0.99017934    9519.0187   0.72612526 
   86000   -4.8615476    1.4948186    -3.366729   0.98481351   0.99668994    9519.0187   0.72612526 
   87000   -4.8544388    1.4929498    -3.361489    1.0079322   0.99544389    9519.0187   0.72612526 
   88000   -4.8497337     1.492519   -3.3572147    1.0587788   0.99515667    9519.0187   0.72612526 
   89000   -4.8555324    1.4967558   -3.3587766     1.008133   0.99798161    9519.0187   0.72612526 
   90000    -4.838528    1.5169006   -3.3216273    1.0573327    1.0114134    9519.0187   0.72612526 
   91000   -4.8453751    1.5092281    -3.336147    1.0631755    1.0062976    9519.0187   0.72612526 
   92000   -4.8520348     1.504501   -3.3475339   0.99530759    1.0031458    9519.0187   0.72612526 
   93000   -4.8264203    1.4956547   -3.3307655    1.1181188   0.99724744    9519.0187   0.72612526 
   94000   -4.8497029    1.5017468   -3.3479562   0.96434397    1.0013094    9519.0187   0.72612526 
   95000   -4.8495346      1.50058   -3.3489545    1.0600058    1.0005314    9519.0187   0.72612526 
   96000   -4.8644943    1.5028486   -3.3616457   0.94106694     1.002044    9519.0187   0.72612526 
   97000   -4.8671173     1.510166   -3.3569513   0.95610177     1.006923    9519.0187   0.72612526 
   98000   -4.8490787    1.4699534   -3.3791253    1.0178279   0.98011075    9519.0187   0.72612526 
   99000   -4.8740909    1.5011906   -3.3729003   0.93878259    1.0009385    9519.0187   0.72612526 
  100000   -4.8616401    1.5042767   -3.3573635   0.99851273    1.0029962    9519.0187   0.72612526 
  101000   -4.8736132    1.5175915   -3.3560217   0.89457427    1.0118741    9519.0187   0.72612526 
  102000   -4.8612491    1.5340535   -3.3271956    1.0095008    1.0228503    9519.0187   0.72612526 
  103000   -4.8428783    1.5173446   -3.3255337     1.061193    1.0117094    9519.0187   0.72612526 
  104000   -4.8385682    1.4999327   -3.3386355    1.0022862    1.0000998    9519.0187   0.72612526 
  105000    -4.850064    1.5023121   -3.3477519    1.0570267    1.0016863    9519.0187   0.72612526 
  106000   -4.8485293    1.5004483   -3.3480809   0.95642945    1.0004436    9519.0187   0.72612526 
  107000    -4.841041    1.5098915   -3.3311495    1.0296299      1.00674    9519.0187   0.72612526 
  108000   -4.8311256    1.4832016   -3.3479239    1.1273989   0.98894417    9519.0187   0.72612526 
  109000     -4.85461    1.5099292   -3.3446808    1.0087302    1.0067651    9519.0187   0.72612526 
  110000   -4.8444159    1.5047443   -3.3396716    1.0602321     1.003308    9519.0187   0.72612526 
  111000   -4.8459371    1.5207898   -3.3251473    1.0665098    1.0140066    9519.0187   0.72612526 
  112000   -4.8577754    1.5232664    -3.334509   0.97726496    1.0156578    9519.0187   0.72612526 
  113000   -4.8428638    1.5030384   -3.3398254    1.0381093    1.0021706    9519.0187   0.72612526 
  114000   -4.8547292     1.500479   -3.3542502   0.97506424    1.0004641    9519.0187   0.72612526 
  115000   -4.8542601    1.4956014   -3.3586587   0.99388732   0.99721188    9519.0187   0.72612526 
  116000   -4.8643168    1.4740291   -3.3902877    0.9260681   0.98282823    9519.0187   0.72612526 
  117000   -4.8643103    1.4996227   -3.3646876   0.90724496   0.99989313    9519.0187   0.72612526 
  118000   -4.8399658    1.4823326   -3.3576332    1.0435907   0.98836469    9519.0187   0.72612526 
  119000   -4.8528819    1.4897006   -3.3631813    1.0544263   0.99327745    9519.0187   0.72612526 
  120000   -4.8595028    1.4788822   -3.3806206    1.0399744   0.98606415    9519.0187   0.72612526 
  121000   -4.8571981    1.5034915   -3.3537067    1.0200755    1.0024727    9519.0187   0.72612526 
  122000   -4.8617545    1.5211014   -3.3406531   0.92974713    1.0142143    9519.0187   0.72612526 
  123000   -4.8369129    1.5052495   -3.3316634    1.0973249    1.0036449    9519.0187   0.72612526 
  124000   -4.8561433    1.5058868   -3.3502565    1.0301281    1.0040698    9519.0187   0.72612526 
  125000   -4.8602794    1.5041535   -3.3561259   0.94835992    1.0029141    9519.0187   0.72612526 
  126000   -4.8312502    1.5235618   -3.3076885    1.0692939    1.0158548    9519.0187   0.72612526 
  127000   -4.8462364    1.5186818   -3.3275546   0.99183893     1.012601    9519.0187   0.72612526 
  128000   -4.8405862    1.5039875   -3.3365987    1.1098371    1.0028034    9519.0187   0.72612526 
  129000   -4.8474184    1.4752713    -3.372147     1.039711   0.98365652    9519.0187   0.72612526 
  130000   -4.8577251     1.499079   -3.3586461   0.96958988   0.99953059    9519.0187   0.72612526 
  131000   -4.8438407    1.5023271   -3.3415136     1.048528    1.0016963    9519.0187   0.72612526 
  132000    -4.840638    1.5062676   -3.3343705    1.0636649    1.0043237    9519.0187   0.72612526 
  133000   -4.8551464    1.5273379   -3.3278085    1.0141993    1.0183726    9519.0187   0.72612526 
  134000   -4.8370913    1.5159192   -3.3211721    1.0773894     1.010759    9519.0187   0.72612526 
  135000   -4.8563826    1.5130611   -3.3433214   0.97787703    1.0088534    9519.0187   0.72612526 
  136000   -4.8485832    1.5215465   -3.3270367     1.061579    1.0145111    9519.0187   0.72612526 
  137000   -4.8620237    1.5156671   -3.3463566    1.0160016    1.0105909    9519.0187   0.72612526 
  138000   -4.8485692    1.4955593     -3.35301    1.0352108   0.99718377    9519.0187   0.72612526 
  139000   -4.8461167    1.4878378    -3.358279   0.99521452   0.99203538    9519.0187   0.72612526 
  140000   -4.8560006    1.4925115   -3.3634891   0.96655881   0.99515167    9519.0187   0.72612526 
  141000   -4.8442057    1.4851364   -3.3590694    1.0229917   0.99023417    9519.0187   0.72612526 
  142000   -4.8605239    1.4899607   -3.3705631   0.97643642   0.99345087    9519.0187   0.72612526 
  143000   -4.8437151    1.4806644   -3.3630507      1.02227   0.98725246    9519.0187   0.72612526 
  144000   -4.8590225    1.5171434   -3.3418791   0.97636519    1.0115753    9519.0187   0.72612526 
  145000   -4.8520702    1.5144332    -3.337637    1.0254206    1.0097682    9519.0187   0.72612526 
  146000   -4.8431761    1.5115995   -3.3315766    1.0931967    1.0078788    9519.0187   0.72612526 
  147000   -4.8593188    1.5199005   -3.3394183    1.0065374    1.0134136    9519.0187   0.72612526 
  148000   -4.8494697    1.4893348   -3.3601349   0.99899981   0.99303356    9519.0187   0.72612526 
  149000   -4.8460169    1.4807132   -3.3653037    1.0731065   0.98728498    9519.0187   0.72612526 
  150000   -4.8558238    1.4869477   -3.3688761    1.0164569   0.99144192    9519.0187   0.72612526 
  151000   -4.8546079    1.4782467   -3.3763612   0.93214335   0.98564043    9519.0187   0.72612526 
  152000   -4.8662805    1.4883585    -3.377922   0.92993489   0.99238259    9519.0187   0.72612526 
  153000   -4.8562468     1.469788   -3.3864588    1.0272376   0.98000047    9519.0187   0.72612526 
  154000   -4.8540214    1.4870682   -3.3669532   0.99667256   0.99152226    9519.0187   0.72612526 
  155000   -4.8448818    1.5114437   -3.3334381    1.0710942    1.0077749    9519.0187   0.72612526 
  156000   -4.8374482    1.5120705   -3.3253777    1.0943641    1.0081929    9519.0187   0.72612526 
  157000    -4.851477    1.4993433   -3.3521337    1.0184035   0.99970685    9519.0187   0.72612526 
  158000   -4.8609085    1.5076507   -3.3532578    1.0225104    1.0052459    9519.0187   0.72612526 
  159000   -4.8590912    1.4899214   -3.3691698   0.98139164   0.99342466    9519.0187   0.72612526 
  160000    -4.851993    1.4763297   -3.3756632   0.98826345   0.98436222    9519.0187   0.72612526 
  161000   -4.8622289    1.4942133   -3.3680156   0.92500784   0.99628634    9519.0187   0.72612526 
  162000   -4.8516964     1.493886   -3.3578104    1.0208773   0.99606811    9519.0187   0.72612526 
  163000   -4.8457272    1.4959952    -3.349732    1.0220165   0.99747446    9519.0187   0.72612526 
  164000   -4.8305026    1.5146811   -3.3158215     1.072485    1.0099335    9519.0187   0.72612526 
  165000   -4.8322783     1.502567   -3.3297113    1.1000495    1.0018563    9519.0187   0.72612526 
  166000   -4.8497372    1.5175646   -3.3321726    1.0137362    1.0118561    9519.0187   0.72612526 
  167000   -4.8469385     1.517581   -3.3293575     1.024672    1.0118671    9519.0187   0.72612526 
  168000   -4.8392788    1.4959674   -3.3433115    1.1035558   0.99745588    9519.0187   0.72612526 
  169000     -4.85833    1.4687794   -3.3895506   0.91521874   0.97932796    9519.0187   0.72612526 
  170000   -4.8683297    1.4861576    -3.382172   0.92063108   0.99091512    9519.0187   0.72612526 
  171000   -4.8425325    1.4803581   -3.3621745    1.0879652   0.98704819    9519.0187   0.72612526 
  172000   -4.8525217    1.4978284   -3.3546933   0.96942875   0.99869676    9519.0187   0.72612526 
  173000   -4.8608393    1.4992262   -3.3616131   0.91411348   0.99962877    9519.0187   0.72612526 
  174000   -4.8609693    1.4901765   -3.3707928   0.93826681   0.99359476    9519.0187   0.72612526 
  175000    -4.853154    1.4736343   -3.3795198    1.0066871   0.98256499    9519.0187   0.72612526 
  176000    -4.856257    1.4900298   -3.3662272    1.0178764   0.99349695    9519.0187   0.72612526 
  177000   -4.8513342    1.4889916   -3.3623426   0.98027899   0.99280471    9519.0187   0.72612526 
  178000    -4.856578     1.481713    -3.374865   0.96359736   0.98795162    9519.0187   0.72612526 
  179000   -4.8478914    1.4844169   -3.3634744    1.0781432   0.98975449    9519.0187   0.72612526 
  180000   -4.8559976    1.5115908   -3.3444068    1.0133463     1.007873    9519.0187   0.72612526 
  181000   -4.8522899    1.5206979   -3.3315921    1.0275498    1.0139453    9519.0187   0.72612526 
  182000   -4.8293945    1.5229439   -3.3064506    1.0892923    1.0154428    9519.0187   0.72612526 
  183000   -4.8421707    1.5135502   -3.3286205    1.1127543    1.0091795    9519.0187   0.72612526 
  184000   -4.8389507    1.5028128   -3.3361379    1.0582925    1.0020202    9519.0187   0.72612526 
  185000   -4.8423982    1.5061453    -3.336253    1.0599493    1.0042421    9519.0187   0.72612526 
  186000   -4.8467104    1.5032512   -3.3434592    1.0748017    1.0023125    9519.0187   0.72612526 
  187000   -4.8584012    1.5055527   -3.3528484    1.0207287    1.0038471    9519.0187   0.72612526 
  188000   -4.8539374    1.4817358   -3.3722016   0.97173958   0.98796677    9519.0187   0.72612526 
  189000   -4.8630155    1.4985574   -3.3644581   0.94092482    0.9991828    9519.0187   0.72612526 
  190000   -4.8523115    1.4945884   -3.3577232   0.98174391   0.99653642    9519.0187   0.72612526 
  191000   -4.8586049    1.4920487   -3.3665562    1.0207915   0.99484303    9519.0187   0.72612526 
  192000   -4.8678096    1.4916637   -3.3761459   0.92392528   0.99458638    9519.0187   0.72612526 
  193000   -4.8472353    1.4888753     -3.35836    1.0555137   0.99272715    9519.0187   0.72612526 
  194000   -4.8437543    1.4961497   -3.3476047     1.049446   0.99757743    9519.0187   0.72612526 
  195000   -4.8593427    1.5206922   -3.3386505   0.96602871    1.0139415    9519.0187   0.72612526 
  196000   -4.8488997    1.5055761   -3.3433236    1.0140035    1.0038626    9519.0187   0.72612526 
  197000   -4.8550016    1.4607056   -3.3942959    0.9474388   0.97394466    9519.0187   0.72612526 
  198000    -4.854062    1.4770695   -3.3769925    1.0226442    0.9848555    9519.0187   0.72612526 
  199000   -4.8546146    1.4972473   -3.3573673   0.96513951    0.9983093    9519.0187   0.72612526 
  200000   -4.8515667    1.4917078   -3.3598589    1.0594925   0.99461576    9519.0187   0.72612526 
  201000   -4.8551164    1.4857905   -3.3693259   0.97258542   0.99067032    9519.0187   0.72612526 
  202000   -4.8501448    1.4652132   -3.3849315   0.96923665   0.97695016    9519.0187   0.72612526 
  203000   -4.8529252    1.4564534   -3.3964718     1.003364   0.97110944    9519.0187   0.72612526 
  204000   -4.8470219    1.4871783   -3.3598437    1.0104925   0.99159564    9519.0187   0.72612526 
  205000   -4.8605923    1.5015233    -3.359069   0.99302351    1.0011604    9519.0187   0.72612526 
  206000   -4.8441414    1.5080485   -3.3360929    1.0649072    1.0055111    9519.0187   0.72612526 
  207000    -4.858361    1.5170285   -3.3413326   0.96846995    1.0114986    9519.0187   0.72612526 
  208000   -4.8471712    1.5047264   -3.3424448   0.98718388    1.0032961    9519.0187   0.72612526 
  209000   -4.8499616    1.5244602   -3.3255014    1.0362487    1.0164539    9519.0187   0.72612526 
  210000   -4.8601724      1.50025   -3.3599224   0.93378555    1.0003114    9519.0187   0.72612526 
  211000   -4.8530134    1.4760819   -3.3769315    1.0048358   0.98419698    9519.0187   0.72612526 
  212000   -4.8571795    1.4864811   -3.3706984   0.91785717   0.99113077    9519.0187   0.72612526 
  213000   -4.8533531    1.4929015   -3.3604516   0.95955156    0.9954117    9519.0187   0.72612526 
  214000   -4.8556618    1.4957551   -3.3599067    1.0070656   0.99731437    9519.0187   0.72612526 
  215000    -4.850784    1.5029683   -3.3478156    1.0144462    1.0021239    9519.0187   0.72612526 
  216000   -4.8364337    1.5079885   -3.3284452    1.0621922    1.0054712    9519.0187   0.72612526 
  217000   -4.8583583    1.5195623    -3.338796   0.97718794    1.0131881    9519.0187   0.72612526 
  218000   -4.8358081    1.4982422   -3.3375659    1.0439904   0.99897267    9519.0187   0.72612526 
  219000   -4.8507295    1.4994932   -3.3512363    1.0494799   0.99980677    9519.0187   0.72612526 
  220000   -4.8481279    1.5066407   -3.3414873   0.99814393    1.0045724    9519.0187   0.72612526 
  221000   -4.8455813    1.5164022   -3.3291791     1.044566    1.0110811    9519.0187   0.72612526 
  222000   -4.8506102    1.5232237   -3.3273864    1.0846104    1.0156294    9519.0187   0.72612526 
  223000   -4.8543429    1.5225669    -3.331776   0.95254933    1.0151915    9519.0187   0.72612526 
  224000   -4.8257052    1.4897794   -3.3359258    1.1042046   0.99332998    9519.0187   0.72612526 
  225000   -4.8503394    1.4999424   -3.3503969    0.9836547    1.0001063    9519.0187   0.72612526 
  226000   -4.8493627    1.5071685   -3.3421943    1.0808356    1.0049244    9519.0187   0.72612526 
  227000    -4.861074     1.502942   -3.3581321    1.0375355    1.0021063    9519.0187   0.72612526 
  228000    -4.858126    1.4872126   -3.3709134     1.003311   0.99161852    9519.0187   0.72612526 
  229000   -4.8757371    1.4999127   -3.3758244   0.93546294    1.0000865    9519.0187   0.72612526 
  230000   -4.8610929    1.4892724   -3.3718205   0.94093179   0.99299196    9519.0187   0.72612526 
  231000   -4.8565937    1.4756655   -3.3809282   0.94164497   0.98391933    9519.0187   0.72612526 
  232000   -4.8550362    1.4967053   -3.3583309   0.95867588   0.99794792    9519.0187   0.72612526 
  233000   -4.8331166    1.4879075    -3.345209    1.0702872   0.99208189    9519.0187   0.72612526 
  234000   -4.8614059    1.4967592   -3.3646466   0.96183833   0.99798387    9519.0187   0.72612526 
  235000   -4.8515899    1.4953793   -3.3562105    1.0279746    0.9970638    9519.0187   0.72612526 
  236000   -4.8387457    1.4835354   -3.3552103    1.0985323   0.98916674    9519.0187   0.72612526 
  237000   -4.8523868    1.5040767     -3.34831    1.0092955    1.0028629    9519.0187   0.72612526 
  238000   -4.8392066    1.4825649   -3.3566417     1.054187   0.98851961    9519.0187   0.72612526 
  239000   -4.8454351    1.4693018   -3.3761332    1.0231753   0.97967628    9519.0187   0.72612526 
  240000   -4.8728118    1.4828951   -3.3899167   0.87963016   0.98873975    9519.0187   0.72612526 
  241000   -4.8726252    1.4931732    -3.379452   0.88383458   0.99559284    9519.0187   0.72612526 
  242000   -4.8456299    1.4795626   -3.3660673   0.98136783   0.98651779    9519.0187   0.72612526 
  243000   -4.8567737    1.4879876   -3.3687861   0.98971496   0.99213526    9519.0187   0.72612526 
  244000   -4.8641561    1.5024576   -3.3616985   0.98376267    1.0017833    9519.0187   0.72612526 
  245000   -4.8554319    1.4885325   -3.3668994   0.95033928   0.99249861    9519.0187   0.72612526 
  246000   -4.8553654    1.4928968   -3.3624686   0.95266427   0.99540857    9519.0187   0.72612526 
  247000   -4.8474687    1.5115347    -3.335934   0.98546014    1.0078356    9519.0187   0.72612526 
  248000   -4.8364609    1.4966694   -3.3397916    1.0594773   0.99792395    9519.0187   0.72612526 
  249000   -4.8534364    1.4787029   -3.3747335   0.96012608    0.9859446    9519.0187   0.72612526 
  250000   -4.8575499    1.5130189    -3.344531   0.96897067    1.0088252    9519.0187   0.72612526 
Loop time of 1239.12 on 2 procs for 200000 steps with 6912 atoms

Performance: 69726.845 tau/day, 161.405 timesteps/s
99.3% CPU use with 2 MPI tasks x no OpenMP threads

MPI task timing breakdown:
Section |  min time  |  avg time  |  max time  |%varavg| %total
---------------------------------------------------------------
Pair    | 1035.6     | 1054.2     | 1072.8     |  57.2 | 85.08
Neigh   | 112        | 112.59     | 113.18     |   5.6 |  9.09
Comm    | 32.875     | 52.135     | 71.395     | 266.7 |  4.21
Output  | 0.73816    | 0.73914    | 0.74011    |   0.1 |  0.06
Modify  | 16.283     | 16.342     | 16.401     |   1.5 |  1.32
Other   |            | 3.126      |            |       |  0.25

Nlocal:    3456 ave 3488 max 3424 min
Histogram: 1 0 0 0 0 0 0 0 0 1
Nghost:    7447 ave 7454 max 7440 min
Histogram: 1 0 0 0 0 0 0 0 0 1
Neighs:    286478 ave 287622 max 285333 min
Histogram: 1 0 0 0 0 0 0 0 0 1

Total # of neighbors = 572955
Ave neighs/atom = 82.8928
Neighbor list builds = 10000
Dangerous builds not checked
unfix       intnvt
uncompute   rdfnvt
unfix       rdfnvt
undump      idnvt

next      a
jump      in.melt epsloop
variable    a loop 10   #loop parameter defined
variable    eps equal 0.5+($a-1)*0.5
variable    eps equal 0.5+(2-1)*0.5
if "${eps} > 2" then "variable eps equal 2.0+($a-4)*2.0" #epsilon value will increase at rate of 0.5 from 0.5 till 2.0


#Seeting the pair coefficient for all types of interaction
pair_coeff	1 1 10.0 1.0 3.5  # epsilon sigma and rcut is defined repectively
pair_coeff	1 2 ${eps} 1.0 3.5
pair_coeff	1 2 1 1.0 3.5
pair_coeff	2 2 0.8 1.0 3.5 # Use epsilon(nanoparticle)=10.0


minimize  1.0e-4 1.0e-6 100 1000
WARNING: Using 'neigh_modify every 1 delay 0 check yes' setting during minimization (../min.cpp:190)
Neighbor list info ...
  update every 1 steps, delay 0 steps, check yes
  max neighbors/atom: 2000, page size: 100000
  master list distance cutoff = 3.8
  ghost atom cutoff = 3.8
  binsize = 1.9, bins = 12 12 12
  1 neighbor lists, perpetual/occasional/extra = 1 0 0
  (1) pair lj/cut, perpetual
      attributes: half, newton on
      pair build: half/bin/atomonly/newton
      stencil: half/bin/3d/newton
      bin: standard
Per MPI rank memory allocation (min/avg/max) = 5.417 | 5.417 | 5.418 Mbytes
Step PotEng KinEng TotEng Press Temp Volume Density 
  250000   -4.8839811    1.5130189   -3.3709623   0.96382167    1.0088252    9519.0187   0.72612526 
  250100   -6.0014056    1.5130189   -4.4883867   -1.4217359    1.0088252    9519.0187   0.72612526 
Loop time of 2.04876 on 2 procs for 100 steps with 6912 atoms

99.7% CPU use with 2 MPI tasks x no OpenMP threads

Minimization stats:
  Stopping criterion = max iterations
  Energy initial, next-to-last, final = 
        -4.88398114774     -5.99771184473      -6.0014056222
  Force two-norm initial, final = 2277.36 289.102
  Force max component initial, final = 201.141 60.7516
  Final line search alpha, max atom move = 0.00233757 0.142011
  Iterations, force evaluations = 100 195

MPI task timing breakdown:
Section |  min time  |  avg time  |  max time  |%varavg| %total
---------------------------------------------------------------
Pair    | 1.6472     | 1.6564     | 1.6656     |   0.7 | 80.85
Neigh   | 0.25179    | 0.25872    | 0.26564    |   1.4 | 12.63
Comm    | 0.10391    | 0.10628    | 0.10865    |   0.7 |  5.19
Output  | 7.2589e-05 | 8.0523e-05 | 8.8457e-05 |   0.0 |  0.00
Modify  | 0          | 0          | 0          |   0.0 |  0.00
Other   |            | 0.02727    |            |       |  1.33

Nlocal:    3456 ave 3477 max 3435 min
Histogram: 1 0 0 0 0 0 0 0 0 1
Nghost:    7422.5 ave 7428 max 7417 min
Histogram: 1 0 0 0 0 0 0 0 0 1
Neighs:    287268 ave 288660 max 285877 min
Histogram: 1 0 0 0 0 0 0 0 0 1

Total # of neighbors = 574537
Ave neighs/atom = 83.1217
Neighbor list builds = 24
Dangerous builds not checked

neighbor	0.3 bin   #skin factor is taken to 0.3
neigh_modify	every 20 delay 0 check no
timestep 0.005
variable nthermo equal 1000
variable temp equal 1.0
variable tdamp equal 1.0
variable pext equal 1.0
variable pdamp equal 10.0
variable Nevery equal 1000
variable Nfreq equal 100000
variable Nrepeat equal 100
reset_timestep 0

#Using Npt to Calculate the rdf

fix 		intnpt all npt temp ${temp} ${temp} ${tdamp} iso ${pext} ${pext} ${pdamp}
fix 		intnpt all npt temp 1 ${temp} ${tdamp} iso ${pext} ${pext} ${pdamp}
fix 		intnpt all npt temp 1 1 ${tdamp} iso ${pext} ${pext} ${pdamp}
fix 		intnpt all npt temp 1 1 1 iso ${pext} ${pext} ${pdamp}
fix 		intnpt all npt temp 1 1 1 iso 1 ${pext} ${pdamp}
fix 		intnpt all npt temp 1 1 1 iso 1 1 ${pdamp}
fix 		intnpt all npt temp 1 1 1 iso 1 1 10
dump		id all atom 1000 out.dump.npt.${eps}.lammpstrj
dump		id all atom 1000 out.dump.npt.1.lammpstrj
thermo		${nthermo}
thermo		1000
thermo_style custom step pe ke etotal press temp vol density
restart 25000 restartnpt1.data restartnpt2.data
run		  50000
Per MPI rank memory allocation (min/avg/max) = 4.925 | 4.925 | 4.926 Mbytes
Step PotEng KinEng TotEng Press Temp Volume Density 
       0   -6.0014056    1.5130189   -4.4883867   -1.4217359    1.0088252    9519.0187   0.72612526 
    1000   -5.1673546    1.4735714   -3.6937831    1.5062277    0.9825231    8845.5964   0.78140576 
    2000   -4.9492643      1.52024   -3.4290242    1.0310732      1.01364    9378.9575    0.7369689 
    3000   -4.8697778    1.4883187   -3.3814591    1.1162777   0.99235605    9514.5146   0.72646901 
    4000   -4.8698109    1.4891307   -3.3806802    1.0166599   0.99289747    9513.2446   0.72656599 
    5000   -4.8852979    1.5092665   -3.3760314    1.0604837    1.0063232    9509.6984   0.72683693 
    6000   -4.8872968    1.5003405   -3.3869562    1.0198331    1.0003717    9499.2289   0.72763801 
    7000   -4.8951276    1.5261623   -3.3689653   0.93385025    1.0175887    9530.7259   0.72523332 
    8000   -4.9138619    1.5092046   -3.4046574    1.0370975     1.006282    9464.2307   0.73032877 
    9000   -4.8727334    1.4825584    -3.390175    1.0574179    0.9885153     9512.945   0.72658887 
   10000   -4.8798971     1.491606   -3.3882911    1.0359708   0.99454791    9500.0909   0.72757199 
   11000   -4.9045872     1.495117   -3.4094702   0.99491019   0.99688888    9472.6834   0.72967708 
   12000   -4.8981027    1.5027516   -3.3953511   0.93998648    1.0019794    9511.1661   0.72672477 
   13000   -4.8837048    1.4842281   -3.3994766   0.99302267   0.98962861     9518.744   0.72614623 
   14000   -4.8934281    1.5005787   -3.3928494   0.97280942    1.0005306    9519.7465   0.72606975 
   15000   -4.9051936    1.4969526   -3.4082411    1.0746707   0.99811277    9456.5591   0.73092125 
   16000   -4.8995143    1.5166776   -3.3828367   0.96335917    1.0112647    9512.0806    0.7266549 
   17000    -4.891041    1.4932603   -3.3977807    1.1627901    0.9956509    9457.5003   0.73084851 
   18000   -4.8899128    1.5121603   -3.3777525   0.96772036    1.0082527    9530.2278   0.72527123 
   19000    -4.907615     1.501995     -3.40562    1.1037852    1.0014749    9414.4314   0.73419198 
   20000   -4.8718985    1.5080526   -3.3638459    1.0129859    1.0055139    9556.7508   0.72325837 
   21000   -4.8989529    1.4970808   -3.4018721    1.0055393   0.99819828    9469.3687    0.7299325 
   22000   -4.9043149    1.5006465   -3.4036684    1.0179979    1.0005757    9439.2538   0.73226128 
   23000   -4.8573042    1.5330072    -3.324297   0.99537366    1.0221527    9575.9176   0.72181072 
   24000   -4.9034909    1.5068081   -3.3966827    1.0330297    1.0046841    9481.1766   0.72902344 
   25000   -4.9114949    1.5049558   -3.4065391   0.91484824     1.003449    9477.4188    0.7293125 
   26000   -4.8754372    1.4911201   -3.3843171   0.93644978   0.99422391    9563.8184   0.72272388 
   27000   -4.9096558    1.4966717   -3.4129841   0.92880529   0.99792553     9489.305   0.72839897 
   28000   -4.9099762    1.5045224   -3.4054539   0.97967908      1.00316    9473.8649   0.72958609 
   29000   -4.8896793    1.4924897   -3.3971896    1.0486287   0.99513711    9475.1512   0.72948704 
   30000   -4.8874173    1.5156177   -3.3717996     1.052829     1.010558    9501.7385   0.72744582 
   31000   -4.9071178     1.520122   -3.3869958    1.0182166    1.0135613    9471.0426    0.7298035 
   32000   -4.8907305    1.5104345    -3.380296   0.96586093     1.007102    9483.5636   0.72883995 
   33000   -4.8711584    1.5070395   -3.3641189   0.97300059    1.0048384    9529.2496   0.72534567 
   34000   -4.9033493    1.4902667   -3.4130826   0.94326866   0.99365492    9466.7856   0.73013168 
   35000   -4.9023481    1.5038771    -3.398471    1.0293591    1.0027298    9460.4647    0.7306195 
   36000   -4.8744365    1.4784967   -3.3959398   0.92989446   0.98580709     9568.148   0.72239685 
   37000   -4.9031855    1.4831788   -3.4200067    1.0450644   0.98892893    9457.1988   0.73087181 
   38000   -4.8639754     1.483525   -3.3804504   0.97096924   0.98915977     9553.776   0.72348357 
   39000   -4.8820337    1.4805055   -3.4015282    1.0509322   0.98714645    9496.7879   0.72782503 
   40000   -4.8935306    1.4855569   -3.4079738   0.95715647   0.99051454    9527.5993   0.72547131 
   41000   -4.9141356     1.498385   -3.4157506    0.9370658    0.9990679    9465.6539   0.73021896 
   42000   -4.8830049       1.5237   -3.3593049   0.98969496     1.015947    9510.6699   0.72676268 
   43000   -4.8895193    1.5242395   -3.3652798   0.94146904    1.0163067    9504.6582   0.72722236 
   44000    -4.911393    1.5333129   -3.3780801    1.0173503    1.0223565    9469.3081   0.72993718 
   45000   -4.8742789    1.5040733   -3.3702056    1.1513951    1.0028607    9490.3373   0.72831974 
   46000   -4.9019141     1.534382    -3.367532    0.9862251    1.0230694     9501.942   0.72743024 
   47000    -4.891799    1.5105305   -3.3812685     1.008931    1.0071661    9504.9585   0.72719938 
   48000    -4.889997    1.4954492   -3.3945478     1.019652   0.99711039    9491.8816   0.72820124 
   49000   -4.9036165     1.505274   -3.3983425   0.93261416    1.0036612    9499.8776   0.72758833 
   50000   -4.8918547     1.495473   -3.3963817   0.96506899   0.99712625    9530.5411   0.72524738 
Loop time of 303.385 on 2 procs for 50000 steps with 6912 atoms

Performance: 71196.643 tau/day, 164.807 timesteps/s
99.4% CPU use with 2 MPI tasks x no OpenMP threads

MPI task timing breakdown:
Section |  min time  |  avg time  |  max time  |%varavg| %total
---------------------------------------------------------------
Pair    | 255.52     | 258.18     | 260.84     |  16.6 | 85.10
Neigh   | 27.375     | 27.53      | 27.685     |   3.0 |  9.07
Comm    | 6.3595     | 8.8271     | 11.295     |  83.1 |  2.91
Output  | 0.17683    | 0.17711    | 0.17738    |   0.1 |  0.06
Modify  | 7.9171     | 7.9599     | 8.0028     |   1.5 |  2.62
Other   |            | 0.7112     |            |       |  0.23

Nlocal:    3456 ave 3461 max 3451 min
Histogram: 1 0 0 0 0 0 0 0 0 1
Nghost:    7484 ave 7491 max 7477 min
Histogram: 1 0 0 0 0 0 0 0 0 1
Neighs:    286480 ave 288368 max 284592 min
Histogram: 1 0 0 0 0 0 0 0 0 1

Total # of neighbors = 572960
Ave neighs/atom = 82.8935
Neighbor list builds = 2500
Dangerous builds not checked
unfix   intnpt
undump  id


#Using Nvt to calculate the rdf

fix         intnvt all nvt temp ${temp} ${temp} ${tdamp}
fix         intnvt all nvt temp 1 ${temp} ${tdamp}
fix         intnvt all nvt temp 1 1 ${tdamp}
fix         intnvt all nvt temp 1 1 1
compute     rdfnvt all rdf 100 1 1 1 2 2 2
fix         rdfnvt all ave/time ${Nevery} ${Nrepeat} ${Nfreq} c_rdfnvt[*] file systemnvt.rdf.${eps} mode vector ave window 2
fix         rdfnvt all ave/time 1000 ${Nrepeat} ${Nfreq} c_rdfnvt[*] file systemnvt.rdf.${eps} mode vector ave window 2
fix         rdfnvt all ave/time 1000 100 ${Nfreq} c_rdfnvt[*] file systemnvt.rdf.${eps} mode vector ave window 2
fix         rdfnvt all ave/time 1000 100 100000 c_rdfnvt[*] file systemnvt.rdf.${eps} mode vector ave window 2
fix         rdfnvt all ave/time 1000 100 100000 c_rdfnvt[*] file systemnvt.rdf.1 mode vector ave window 2
dump        idnvt all atom 1000 out.dump.nvt.${eps}.lammpstrj
dump        idnvt all atom 1000 out.dump.nvt.1.lammpstrj
thermo      ${nthermo}
thermo      1000
thermo_style custom step pe ke etotal press temp vol density
restart     100000 restartnvt1.data restartnvt2.data
run         200000
Neighbor list info ...
  update every 20 steps, delay 0 steps, check no
  max neighbors/atom: 2000, page size: 100000
  master list distance cutoff = 3.8
  ghost atom cutoff = 3.8
  binsize = 1.9, bins = 12 12 12
  2 neighbor lists, perpetual/occasional/extra = 1 1 0
  (1) pair lj/cut, perpetual
      attributes: half, newton on
      pair build: half/bin/atomonly/newton
      stencil: half/bin/3d/newton
      bin: standard
  (2) compute rdf, occasional, copy from (1)
      attributes: half, newton on
      pair build: copy
      stencil: none
      bin: none
Per MPI rank memory allocation (min/avg/max) = 4.925 | 4.925 | 4.925 Mbytes
Step PotEng KinEng TotEng Press Temp Volume Density 
   50000   -4.8918547     1.495473   -3.3963817   0.96506899   0.99712625    9530.5411   0.72524738 
   51000   -4.8842512    1.4895818   -3.3946694     0.957076   0.99319823    9530.5411   0.72524738 
   52000   -4.8883571    1.5258569   -3.3625002   0.99252405    1.0173851    9530.5411   0.72524738 
   53000   -4.8935326    1.5023719   -3.3911607   0.96406232    1.0017262    9530.5411   0.72524738 
   54000      -4.8838    1.5034387   -3.3803614   0.96882358    1.0024375    9530.5411   0.72524738 
   55000   -4.8745871     1.518918   -3.3556691   0.98121636    1.0127585    9530.5411   0.72524738 
   56000   -4.8735771    1.5032341    -3.370343     1.054015    1.0023011    9530.5411   0.72524738 
   57000   -4.8822039    1.5038443   -3.3783596    1.0265832     1.002708    9530.5411   0.72524738 
   58000   -4.8865828    1.4732628   -3.4133201   0.91154709   0.98231729    9530.5411   0.72524738 
   59000   -4.8770183    1.4794829   -3.3975354    0.9398652   0.98646466    9530.5411   0.72524738 
   60000   -4.8861112    1.4939699   -3.3921414    1.0042555   0.99612402    9530.5411   0.72524738 
   61000   -4.8847034    1.4976599   -3.3870436   0.99931857   0.99858437    9530.5411   0.72524738 
   62000   -4.8762528    1.4948656   -3.3813873    1.0135893   0.99672124    9530.5411   0.72524738 
   63000   -4.8731974    1.5083909   -3.3648065    1.0175301    1.0057395    9530.5411   0.72524738 
   64000   -4.8929005    1.5269875    -3.365913   0.93254621    1.0181389    9530.5411   0.72524738 
   65000   -4.8607688    1.5212551   -3.3395137    1.0848036    1.0143168    9530.5411   0.72524738 
   66000   -4.8727046    1.5060024   -3.3667022    1.0011995    1.0041469    9530.5411   0.72524738 
   67000   -4.8857244    1.5044785   -3.3812459   0.98635471    1.0031308    9530.5411   0.72524738 
   68000   -4.8805796    1.5054784   -3.3751012   0.99819118    1.0037975    9530.5411   0.72524738 
   69000   -4.8807454    1.5211887   -3.3595567    1.0268998    1.0142725    9530.5411   0.72524738 
   70000   -4.8724883    1.4938912   -3.3785971     1.039564   0.99607159    9530.5411   0.72524738 
   71000   -4.8769369    1.5059346   -3.3710023    1.0295788    1.0041016    9530.5411   0.72524738 
   72000   -4.8838765    1.5141841   -3.3696923    1.0180953    1.0096022    9530.5411   0.72524738 
   73000   -4.8743634     1.503092   -3.3712714   0.99909117    1.0022064    9530.5411   0.72524738 
   74000   -4.9012619    1.5131452   -3.3881167   0.89916879    1.0089094    9530.5411   0.72524738 
   75000   -4.8713067    1.4608461   -3.4104606    1.0236866   0.97403834    9530.5411   0.72524738 
   76000   -4.9036054    1.4819676   -3.4216378   0.89633195   0.98812136    9530.5411   0.72524738 
   77000   -4.8876226    1.4855149   -3.4021076   0.96442336   0.99048659    9530.5411   0.72524738 
   78000   -4.8806405     1.493891   -3.3867495   0.95157869   0.99607147    9530.5411   0.72524738 
   79000    -4.898205    1.4724574   -3.4257476   0.97061383   0.98178028    9530.5411   0.72524738 
   80000   -4.8870117    1.4762694   -3.4107422   0.93246743   0.98432203    9530.5411   0.72524738 
   81000   -4.8893609    1.4943355   -3.3950255    0.9395697   0.99636779    9530.5411   0.72524738 
   82000   -4.8692266     1.477132   -3.3920946    1.0352168   0.98489717    9530.5411   0.72524738 
   83000    -4.888911    1.4982569   -3.3906542   0.96292824   0.99898244    9530.5411   0.72524738 
   84000   -4.8858972    1.4996089   -3.3862883   0.96520628   0.99988392    9530.5411   0.72524738 
   85000   -4.8899596     1.510546   -3.3794136   0.96962612    1.0071764    9530.5411   0.72524738 
   86000   -4.8703062    1.4916668   -3.3786394   0.95208914   0.99458841    9530.5411   0.72524738 
   87000      -4.8855    1.4840638   -3.4014362    1.0049237   0.98951902    9530.5411   0.72524738 
   88000   -4.8741751    1.4746168   -3.3995583    1.0189876   0.98322012    9530.5411   0.72524738 
   89000   -4.8952298    1.5057849   -3.3894449   0.93727353    1.0040019    9530.5411   0.72524738 
   90000   -4.8977057    1.4975025   -3.4002032   0.89398531   0.99847946    9530.5411   0.72524738 
   91000   -4.8978173     1.480596   -3.4172214   0.87910626   0.98720682    9530.5411   0.72524738 
   92000   -4.8849131    1.4961991    -3.388714   0.98599325   0.99761041    9530.5411   0.72524738 
   93000   -4.8885217    1.5008559   -3.3876658   0.92526529    1.0007154    9530.5411   0.72524738 
   94000   -4.8642366    1.4805998   -3.3836368    1.0755082   0.98720936    9530.5411   0.72524738 
   95000   -4.8742243    1.4957167   -3.3785076    1.0160248   0.99728874    9530.5411   0.72524738 
   96000   -4.8872281    1.4943515   -3.3928766   0.93892992   0.99637848    9530.5411   0.72524738 
   97000   -4.8874474    1.5009813   -3.3864662   0.96395121     1.000799    9530.5411   0.72524738 
   98000   -4.8827845    1.4859221   -3.3968624   0.93529969   0.99075804    9530.5411   0.72524738 
   99000   -4.8916612    1.4813683   -3.4102928   0.95735296   0.98772179    9530.5411   0.72524738 
  100000   -4.8868457    1.5008657   -3.3859801   0.90339176    1.0007219    9530.5411   0.72524738 
  101000   -4.8736353    1.4924492   -3.3811861    0.9931219    0.9951101    9530.5411   0.72524738 
  102000   -4.8785482    1.4924852   -3.3860631   0.97065726   0.99513408    9530.5411   0.72524738 
  103000   -4.8836433    1.5003229   -3.3833204    0.9563323      1.00036    9530.5411   0.72524738 
  104000   -4.8803251    1.4862168   -3.3941083    1.0003383   0.99095454    9530.5411   0.72524738 
  105000   -4.8775905    1.4815975    -3.395993      1.03466   0.98787457    9530.5411   0.72524738 
  106000   -4.9005833     1.515461   -3.3851223   0.85993208    1.0104536    9530.5411   0.72524738 
  107000   -4.8791321    1.5112448   -3.3678874   0.90588268    1.0076423    9530.5411   0.72524738 
  108000   -4.8681522    1.5126227   -3.3555295    1.0323804    1.0085611    9530.5411   0.72524738 
  109000   -4.8799227    1.4996926   -3.3802301    1.0022424   0.99993975    9530.5411   0.72524738 
  110000   -4.8860943    1.4768951   -3.4091992   0.95135881   0.98473921    9530.5411   0.72524738 
  111000   -4.8887612    1.4731246   -3.4156366   0.96564699   0.98222515    9530.5411   0.72524738 
  112000   -4.8825805     1.492852   -3.3897284   0.99278861   0.99537868    9530.5411   0.72524738 
  113000   -4.8670413    1.4901815   -3.3768598    1.0388407   0.99359808    9530.5411   0.72524738 
  114000   -4.8777652    1.4962942    -3.381471   0.95741501   0.99767382    9530.5411   0.72524738 
  115000   -4.8852376    1.5038442   -3.3813934   0.96379513    1.0027079    9530.5411   0.72524738 
  116000   -4.8783457    1.5042589   -3.3740868    1.0147496    1.0029844    9530.5411   0.72524738 
  117000   -4.8930607    1.5286344   -3.3644263   0.92725827     1.019237    9530.5411   0.72524738 
  118000   -4.8765801    1.5020783   -3.3745018   0.98991515    1.0015304    9530.5411   0.72524738 
  119000   -4.8689222    1.5153141   -3.3536081     0.988097    1.0103555    9530.5411   0.72524738 
  120000   -4.8711321    1.4923789   -3.3787533    1.0096302    0.9950632    9530.5411   0.72524738 
  121000   -4.8795039    1.5122823   -3.3672216    1.0022496    1.0083341    9530.5411   0.72524738 
  122000   -4.8678693    1.4865494   -3.3813199    1.0665183   0.99117637    9530.5411   0.72524738 
  123000   -4.8865586    1.5042292   -3.3823294   0.99878173    1.0029646    9530.5411   0.72524738 
  124000   -4.8771274    1.4887304    -3.388397    1.0011413   0.99263057    9530.5411   0.72524738 
  125000   -4.8839068    1.5008841   -3.3830227   0.94187438    1.0007342    9530.5411   0.72524738 
  126000   -4.8888969    1.5084852   -3.3804117    0.9333524    1.0058023    9530.5411   0.72524738 
  127000   -4.8724512    1.4979847   -3.3744665   0.96414741   0.99880098    9530.5411   0.72524738 
  128000   -4.8871677     1.511259   -3.3759087   0.94654963    1.0076518    9530.5411   0.72524738 
  129000   -4.8687436    1.5272539   -3.3414897    1.0288191    1.0183166    9530.5411   0.72524738 
  130000   -4.8628574    1.5053186   -3.3575388    1.0446948    1.0036909    9530.5411   0.72524738 
  131000   -4.8715649    1.5069685   -3.3645964    1.0357931     1.004791    9530.5411   0.72524738 
  132000   -4.8804394    1.5115888   -3.3688506   0.95280336    1.0078717    9530.5411   0.72524738 
  133000   -4.8952992    1.5121516   -3.3831475   0.97361228    1.0082469    9530.5411   0.72524738 
  134000   -4.8926433    1.4913084   -3.4013348   0.99076243   0.99434947    9530.5411   0.72524738 
  135000   -4.8909413    1.5048131   -3.3861282   0.95851097    1.0033539    9530.5411   0.72524738 
  136000   -4.8972031    1.5026568   -3.3945463   0.96279247    1.0019162    9530.5411   0.72524738 
  137000   -4.8834377    1.4783036   -3.4051341   0.97568328   0.98567831    9530.5411   0.72524738 
  138000   -4.9029219    1.4685654   -3.4343566   0.91020344   0.97918525    9530.5411   0.72524738 
  139000   -4.8738476    1.5062867   -3.3675609     1.058658    1.0043364    9530.5411   0.72524738 
  140000   -4.8836339    1.5075034   -3.3761305   0.96561865    1.0051477    9530.5411   0.72524738 
  141000   -4.8980361    1.5202482   -3.3777878   0.90292923    1.0136455    9530.5411   0.72524738 
  142000    -4.891008    1.4895679   -3.4014402   0.94554692   0.99318893    9530.5411   0.72524738 
  143000   -4.8955184    1.5005445   -3.3949738   0.93964572    1.0005078    9530.5411   0.72524738 
  144000   -4.8868291    1.4857007   -3.4011284   0.97797026   0.99061042    9530.5411   0.72524738 
  145000    -4.888864    1.4967423   -3.3921217   0.98809227   0.99797258    9530.5411   0.72524738 
  146000     -4.88906    1.5024672   -3.3865928   0.95996301    1.0017898    9530.5411   0.72524738 
  147000   -4.8676914    1.4858419   -3.3818495    1.0483395   0.99070462    9530.5411   0.72524738 
  148000   -4.8673926    1.5023535   -3.3650391    1.0476616    1.0017139    9530.5411   0.72524738 
  149000   -4.8817604    1.5046077   -3.3771527   0.90541152    1.0032169    9530.5411   0.72524738 
  150000   -4.8916201    1.5019638   -3.3896563   0.91409398    1.0014541    9530.5411   0.72524738 
  151000   -4.8757948     1.479217   -3.3965778    1.0299848   0.98628736    9530.5411   0.72524738 
  152000   -4.8849088    1.4713755   -3.4135333   0.96271093   0.98105892    9530.5411   0.72524738 
  153000   -4.8909882    1.4965675   -3.3944207   0.92721461   0.99785604    9530.5411   0.72524738 
  154000    -4.886325     1.496342    -3.389983   0.97721414   0.99770569    9530.5411   0.72524738 
  155000   -4.8852971     1.501392   -3.3839052   0.98675795    1.0010728    9530.5411   0.72524738 
  156000   -4.8931783    1.5049767   -3.3882016   0.93801281     1.003463    9530.5411   0.72524738 
  157000   -4.8729962    1.4830951   -3.3899011    1.0126004   0.98887315    9530.5411   0.72524738 
  158000   -4.8877893    1.4831889   -3.4046004   0.98164664   0.98893564    9530.5411   0.72524738 
  159000   -4.8876436    1.5097809   -3.3778627   0.94474752    1.0066662    9530.5411   0.72524738 
  160000   -4.8830055    1.5206053   -3.3624001    1.0193991    1.0138836    9530.5411   0.72524738 
  161000   -4.8902467     1.512213   -3.3780336   0.97739994    1.0082879    9530.5411   0.72524738 
  162000   -4.8610419    1.4745138   -3.3865282    1.1236146   0.98315141    9530.5411   0.72524738 
  163000   -4.8965086    1.4787228   -3.4177858   0.90388817   0.98595785    9530.5411   0.72524738 
  164000   -4.8715251    1.4639002   -3.4076249   0.97944806   0.97607467    9530.5411   0.72524738 
  165000    -4.877205    1.4796403   -3.3975647   0.99912262   0.98656961    9530.5411   0.72524738 
  166000   -4.8800282    1.4920225   -3.3880057    1.0244286   0.99482562    9530.5411   0.72524738 
  167000   -4.8802685    1.4798757   -3.4003928   0.97227795   0.98672653    9530.5411   0.72524738 
  168000   -4.8826011    1.4704038   -3.4121973   0.89529252   0.98041107    9530.5411   0.72524738 
  169000   -4.8744605      1.48955   -3.3849104    1.0607692   0.99317704    9530.5411   0.72524738 
  170000    -4.891867    1.5163009    -3.375566   0.95323614    1.0110136    9530.5411   0.72524738 
  171000   -4.8639369    1.4878996   -3.3760372    1.0789928   0.99207662    9530.5411   0.72524738 
  172000   -4.8714848    1.5015906   -3.3698942    1.0053741    1.0012053    9530.5411   0.72524738 
  173000   -4.8684319    1.5143823   -3.3540495    1.0484743    1.0097343    9530.5411   0.72524738 
  174000    -4.881078     1.502625    -3.378453    1.0537686     1.001895    9530.5411   0.72524738 
  175000   -4.8798487    1.5026383   -3.3772104   0.97219336    1.0019038    9530.5411   0.72524738 
  176000   -4.8840899    1.5224423   -3.3616476   0.97290444    1.0151084    9530.5411   0.72524738 
  177000   -4.8822364    1.5043783   -3.3778581    1.0001501     1.003064    9530.5411   0.72524738 
  178000    -4.885021    1.5096526   -3.3753684   0.94413575    1.0065807    9530.5411   0.72524738 
  179000   -4.8803054    1.5052796   -3.3750258   0.97142855    1.0036649    9530.5411   0.72524738 
  180000   -4.8921964    1.4888446   -3.4033517   0.93414488   0.99270672    9530.5411   0.72524738 
  181000   -4.8830602    1.4892063   -3.3938539    0.9496947   0.99294787    9530.5411   0.72524738 
  182000   -4.8915755    1.4900748   -3.4015007   0.94211676   0.99352694    9530.5411   0.72524738 
  183000   -4.8893601    1.4781808   -3.4111793   0.94107847   0.98559646    9530.5411   0.72524738 
  184000   -4.8902902    1.4893722   -3.4009179   0.92855495    0.9930585    9530.5411   0.72524738 
  185000   -4.8790948     1.501667   -3.3774279     1.021378    1.0012562    9530.5411   0.72524738 
  186000   -4.8856679    1.5238246   -3.3618434     1.025903      1.01603    9530.5411   0.72524738 
  187000    -4.880107    1.5051996   -3.3749075    1.0093506    1.0036116    9530.5411   0.72524738 
  188000   -4.9086648    1.5188892   -3.3897756    0.8978384    1.0127393    9530.5411   0.72524738 
  189000   -4.8896764    1.4960769   -3.3935995   0.92029062   0.99752892    9530.5411   0.72524738 
  190000    -4.915746     1.509591    -3.406155     0.843758    1.0065396    9530.5411   0.72524738 
  191000   -4.8933614    1.5024941   -3.3908673   0.92188592    1.0018077    9530.5411   0.72524738 
  192000   -4.8659416    1.4808617     -3.38508    1.0973838   0.98738395    9530.5411   0.72524738 
  193000   -4.8913578    1.4953242   -3.3960336   0.96569791   0.99702708    9530.5411   0.72524738 
  194000   -4.8932087    1.4964407    -3.396768   0.98661024   0.99777149    9530.5411   0.72524738 
  195000    -4.894852    1.5068529   -3.3879991   0.93344522     1.004714    9530.5411   0.72524738 
  196000   -4.8759481    1.5071273   -3.3688208   0.97787613    1.0048969    9530.5411   0.72524738 
  197000   -4.8709057    1.4935389   -3.3773668    1.0369543   0.99583666    9530.5411   0.72524738 
  198000   -4.8781612    1.5105757   -3.3675856   0.89710673    1.0071962    9530.5411   0.72524738 
  199000    -4.884118    1.5078605   -3.3762576   0.90503073    1.0053858    9530.5411   0.72524738 
  200000   -4.8653047    1.4843083   -3.3809965    1.0232616   0.98968203    9530.5411   0.72524738 
  201000   -4.8806691    1.5010028   -3.3796663    1.0262431    1.0008133    9530.5411   0.72524738 
  202000   -4.8936956     1.485747   -3.4079486    0.9095708   0.99064131    9530.5411   0.72524738 
  203000   -4.8981399    1.4881418   -3.4099981   0.90286538   0.99223809    9530.5411   0.72524738 
  204000   -4.8665893    1.4773014   -3.3892879    1.0432344   0.98501012    9530.5411   0.72524738 
  205000   -4.8766168    1.4902747   -3.3863421    1.0627481   0.99366021    9530.5411   0.72524738 
  206000   -4.8857874      1.48645   -3.3993373   0.94558979   0.99111009    9530.5411   0.72524738 
  207000   -4.8965187    1.4833069   -3.4132118   0.92766719   0.98901433    9530.5411   0.72524738 
  208000   -4.8839881    1.4606734   -3.4233147   0.93907241   0.97392316    9530.5411   0.72524738 
  209000   -4.9028594    1.5085421   -3.3943173   0.93228376    1.0058402    9530.5411   0.72524738 
  210000   -4.8927607    1.5051602   -3.3876005   0.93307976    1.0035853    9530.5411   0.72524738 
  211000   -4.8951409    1.5263594   -3.3687815   0.96967744    1.0177202    9530.5411   0.72524738 
  212000   -4.8755149    1.5092907   -3.3662242    1.0263404    1.0063394    9530.5411   0.72524738 
  213000   -4.8571321    1.5106967   -3.3464353    1.0791594    1.0072769    9530.5411   0.72524738 
  214000   -4.8856394    1.5028373   -3.3828022   0.99344034    1.0020365    9530.5411   0.72524738 
  215000   -4.8803285    1.5011353   -3.3791933    1.0083665    1.0009017    9530.5411   0.72524738 
  216000   -4.8912581    1.5139026   -3.3773555   0.99084057    1.0094144    9530.5411   0.72524738 
  217000   -4.8784821    1.5169717   -3.3615104    0.9645736    1.0114608    9530.5411   0.72524738 
  218000   -4.8681368    1.5211087   -3.3470282    1.0403684    1.0142192    9530.5411   0.72524738 
  219000   -4.8745931    1.4953817   -3.3792114    1.0106071   0.99706537    9530.5411   0.72524738 
  220000   -4.8715959    1.4812552   -3.3903407   0.96256414   0.98764639    9530.5411   0.72524738 
  221000   -4.9017281    1.4913925   -3.4103356    0.8492005   0.99440554    9530.5411   0.72524738 
  222000   -4.8956398    1.4823986   -3.4132412   0.91134997   0.98840871    9530.5411   0.72524738 
  223000   -4.8850765    1.5152012   -3.3698753   0.99465393    1.0102803    9530.5411   0.72524738 
  224000   -4.8817335     1.504313   -3.3774204    1.0114649    1.0030205    9530.5411   0.72524738 
  225000   -4.8790858    1.5053707   -3.3737151   0.95540402    1.0037257    9530.5411   0.72524738 
  226000   -4.8938834     1.537233   -3.3566504   0.96495795    1.0249703    9530.5411   0.72524738 
  227000   -4.8796532    1.5060999   -3.3735533   0.98499431    1.0042119    9530.5411   0.72524738 
  228000   -4.8847414    1.5095524    -3.375189   0.99670716    1.0065139    9530.5411   0.72524738 
  229000   -4.8778904    1.5102555   -3.3676348     1.030932    1.0069827    9530.5411   0.72524738 
  230000   -4.8774775    1.5065311   -3.3709463    1.0250174    1.0044994    9530.5411   0.72524738 
  231000   -4.8869787    1.4918752   -3.3951035    0.9789729   0.99472737    9530.5411   0.72524738 
  232000   -4.8950053    1.4767837   -3.4182217   0.89556034    0.9846649    9530.5411   0.72524738 
  233000   -4.8858398    1.4901591   -3.3956807     0.993315   0.99358316    9530.5411   0.72524738 
  234000   -4.8874902    1.4949354   -3.3925548   0.95619484   0.99676781    9530.5411   0.72524738 
  235000   -4.8802467      1.47981   -3.4004366   0.96915345   0.98668276    9530.5411   0.72524738 
  236000   -4.8902872    1.4950228   -3.3952644    1.0041743   0.99682609    9530.5411   0.72524738 
  237000   -4.9026075    1.4880542   -3.4145533   0.89934416   0.99217968    9530.5411   0.72524738 
  238000   -4.8891474    1.4810538   -3.4080936   0.94154024   0.98751204    9530.5411   0.72524738 
  239000   -4.8626117    1.4786933   -3.3839183    1.0788289    0.9859382    9530.5411   0.72524738 
  240000   -4.8648395    1.4840467   -3.3807929    1.0674382   0.98950759    9530.5411   0.72524738 
  241000   -4.8786941    1.4984795   -3.3802145   0.99515379   0.99913091    9530.5411   0.72524738 
  242000   -4.8866805    1.5192686   -3.3674119   0.95984394    1.0129923    9530.5411   0.72524738 
  243000   -4.8696646    1.4939865   -3.3756781    1.0061537   0.99613513    9530.5411   0.72524738 
  244000   -4.8787937    1.5207035   -3.3580903   0.98533361     1.013949    9530.5411   0.72524738 
  245000   -4.8835175    1.5233291   -3.3601884   0.96961645    1.0156997    9530.5411   0.72524738 
  246000   -4.8857821     1.511058   -3.3747241   0.96395001    1.0075178    9530.5411   0.72524738 
  247000   -4.8820925     1.512952   -3.3691405    1.0377945    1.0087806    9530.5411   0.72524738 
  248000   -4.8847073    1.4925923   -3.3921151   0.95753631   0.99520551    9530.5411   0.72524738 
  249000   -4.8769431    1.5137255   -3.3632176    1.0007579    1.0092963    9530.5411   0.72524738 
  250000   -4.8710746    1.5042344   -3.3668402    1.0106787    1.0029681    9530.5411   0.72524738 
Loop time of 1138.65 on 2 procs for 200000 steps with 6912 atoms

Performance: 75879.480 tau/day, 175.647 timesteps/s
99.2% CPU use with 2 MPI tasks x no OpenMP threads

MPI task timing breakdown:
Section |  min time  |  avg time  |  max time  |%varavg| %total
---------------------------------------------------------------
Pair    | 955.88     | 968.65     | 981.41     |  41.0 | 85.07
Neigh   | 103.84     | 104.21     | 104.59     |   3.7 |  9.15
Comm    | 34.299     | 46.67      | 59.041     | 181.1 |  4.10
Output  | 0.67056    | 0.67149    | 0.67241    |   0.1 |  0.06
Modify  | 15.44      | 15.538     | 15.636     |   2.5 |  1.36
Other   |            | 2.908      |            |       |  0.26

Nlocal:    3456 ave 3481 max 3431 min
Histogram: 1 0 0 0 0 0 0 0 0 1
Nghost:    7455 ave 7471 max 7439 min
Histogram: 1 0 0 0 0 0 0 0 0 1
Neighs:    286162 ave 293952 max 278373 min
Histogram: 1 0 0 0 0 0 0 0 0 1

Total # of neighbors = 572325
Ave neighs/atom = 82.8016
Neighbor list builds = 10000
Dangerous builds not checked
unfix       intnvt
uncompute   rdfnvt
unfix       rdfnvt
undump      idnvt

next      a
jump      in.melt epsloop
variable    a loop 10   #loop parameter defined
variable    eps equal 0.5+($a-1)*0.5
variable    eps equal 0.5+(3-1)*0.5
if "${eps} > 2" then "variable eps equal 2.0+($a-4)*2.0" #epsilon value will increase at rate of 0.5 from 0.5 till 2.0


#Seeting the pair coefficient for all types of interaction
pair_coeff	1 1 10.0 1.0 3.5  # epsilon sigma and rcut is defined repectively
pair_coeff	1 2 ${eps} 1.0 3.5
pair_coeff	1 2 1.5 1.0 3.5
pair_coeff	2 2 0.8 1.0 3.5 # Use epsilon(nanoparticle)=10.0


minimize  1.0e-4 1.0e-6 100 1000
WARNING: Using 'neigh_modify every 1 delay 0 check yes' setting during minimization (../min.cpp:190)
Neighbor list info ...
  update every 1 steps, delay 0 steps, check yes
  max neighbors/atom: 2000, page size: 100000
  master list distance cutoff = 3.8
  ghost atom cutoff = 3.8
  binsize = 1.9, bins = 12 12 12
  1 neighbor lists, perpetual/occasional/extra = 1 0 0
  (1) pair lj/cut, perpetual
      attributes: half, newton on
      pair build: half/bin/atomonly/newton
      stencil: half/bin/3d/newton
      bin: standard
Per MPI rank memory allocation (min/avg/max) = 5.417 | 5.418 | 5.418 Mbytes
Step PotEng KinEng TotEng Press Temp Volume Density 
  250000   -4.9028267    1.5042344   -3.3985923    1.0029093    1.0029681    9530.5411   0.72524738 
  250100    -6.032323    1.5042344   -4.5280886   -1.4506858    1.0029681    9530.5411   0.72524738 
Loop time of 2.25822 on 2 procs for 100 steps with 6912 atoms

98.4% CPU use with 2 MPI tasks x no OpenMP threads

Minimization stats:
  Stopping criterion = max iterations
  Energy initial, next-to-last, final = 
        -4.90282671742     -6.02887249127      -6.0323230316
  Force two-norm initial, final = 2308.51 257.246
  Force max component initial, final = 196.415 45.836
  Final line search alpha, max atom move = 0.00237078 0.108667
  Iterations, force evaluations = 100 196

MPI task timing breakdown:
Section |  min time  |  avg time  |  max time  |%varavg| %total
---------------------------------------------------------------
Pair    | 1.7017     | 1.739      | 1.7763     |   2.8 | 77.01
Neigh   | 0.35679    | 0.35697    | 0.35714    |   0.0 | 15.81
Comm    | 0.090909   | 0.128      | 0.16509    |  10.4 |  5.67
Output  | 4.4285e-05 | 4.8793e-05 | 5.3301e-05 |   0.0 |  0.00
Modify  | 0          | 0          | 0          |   0.0 |  0.00
Other   |            | 0.03419    |            |       |  1.51

Nlocal:    3456 ave 3497 max 3415 min
Histogram: 1 0 0 0 0 0 0 0 0 1
Nghost:    7411 ave 7417 max 7405 min
Histogram: 1 0 0 0 0 0 0 0 0 1
Neighs:    286616 ave 296854 max 276377 min
Histogram: 1 0 0 0 0 0 0 0 0 1

Total # of neighbors = 573231
Ave neighs/atom = 82.9327
Neighbor list builds = 29
Dangerous builds not checked

neighbor	0.3 bin   #skin factor is taken to 0.3
neigh_modify	every 20 delay 0 check no
timestep 0.005
variable nthermo equal 1000
variable temp equal 1.0
variable tdamp equal 1.0
variable pext equal 1.0
variable pdamp equal 10.0
variable Nevery equal 1000
variable Nfreq equal 100000
variable Nrepeat equal 100
reset_timestep 0

#Using Npt to Calculate the rdf

fix 		intnpt all npt temp ${temp} ${temp} ${tdamp} iso ${pext} ${pext} ${pdamp}
fix 		intnpt all npt temp 1 ${temp} ${tdamp} iso ${pext} ${pext} ${pdamp}
fix 		intnpt all npt temp 1 1 ${tdamp} iso ${pext} ${pext} ${pdamp}
fix 		intnpt all npt temp 1 1 1 iso ${pext} ${pext} ${pdamp}
fix 		intnpt all npt temp 1 1 1 iso 1 ${pext} ${pdamp}
fix 		intnpt all npt temp 1 1 1 iso 1 1 ${pdamp}
fix 		intnpt all npt temp 1 1 1 iso 1 1 10
dump		id all atom 1000 out.dump.npt.${eps}.lammpstrj
dump		id all atom 1000 out.dump.npt.1.5.lammpstrj
thermo		${nthermo}
thermo		1000
thermo_style custom step pe ke etotal press temp vol density
restart 25000 restartnpt1.data restartnpt2.data
run		  50000
Per MPI rank memory allocation (min/avg/max) = 4.926 | 5.117 | 5.308 Mbytes
Step PotEng KinEng TotEng Press Temp Volume Density 
       0    -6.032323    1.5042344   -4.5280886   -1.4506858    1.0029681    9530.5411   0.72524738 
    1000    -5.217788    1.4781152   -3.7396729    1.5285307   0.98555272    8843.0385   0.78163179 
    2000   -4.9906232    1.5120236   -3.4785996    1.0062941    1.0081616    9372.3475   0.73748866 
    3000   -4.9418441    1.4976417   -3.4442024     1.054019   0.99857226    9469.6483   0.72991095 
    4000   -4.9552229    1.5042777   -3.4509453   0.99314159    1.0029969    9471.8283   0.72974296 
    5000   -4.9336639    1.4866845   -3.4469793    1.0063186   0.99126643    9478.6843   0.72921513 
    6000    -4.934025     1.492234    -3.441791    1.0700166   0.99496658    9497.1519   0.72779714 
    7000   -4.9404451    1.4964737   -3.4439714   0.98164685   0.99779351    9510.0997   0.72680626 
    8000   -4.9600211    1.5062976   -3.4537235    1.0535266    1.0043437     9458.874   0.73074237 
    9000   -4.9227437    1.4955891   -3.4271547    1.0318116   0.99720365    9502.9863    0.7273503 
   10000    -4.959246    1.4977393   -3.4615067    1.0288354   0.99863731    9453.0339   0.73119382 
   11000   -4.9450777     1.477659   -3.4674187    1.0100868   0.98524855    9451.9763   0.73127564 
   12000   -4.9266462    1.4850992   -3.4415471    0.9523678   0.99020938    9522.3427    0.7258718 
   13000   -4.9576694    1.5064477   -3.4512217   0.92637615    1.0044438    9477.8939   0.72927594 
   14000   -4.9456673    1.5000165   -3.4456508    1.0664442    1.0001557    9455.5052   0.73100272 
   15000   -4.9272935    1.5136009   -3.4136926    0.9842352    1.0092133    9509.2827    0.7268687 
   16000   -4.9515448    1.4664094   -3.4851354    1.0499593    0.9777477    9445.9871    0.7317393 
   17000   -4.9229628    1.4764209    -3.446542    1.0158517     0.984423    9521.9088   0.72590488 
   18000   -4.9369473    1.5073712   -3.4295762   0.93746476    1.0050595    9501.4895   0.72746489 
   19000   -4.9484861    1.5045526   -3.4439335    1.0735945    1.0031802    9451.4577   0.73131576 
   20000   -4.9630615    1.5126351   -3.4504263    1.0379599    1.0085693    9432.3493   0.73279729 
   21000   -4.9330955    1.4935317   -3.4395638    1.0338786   0.99583187    9482.2678   0.72893955 
   22000   -4.9450439    1.4865783   -3.4584657   0.94309766   0.99119559    9513.7606   0.72652659 
   23000   -4.9585641    1.4854872   -3.4730769    1.0871635   0.99046809    9428.9879   0.73305853 
   24000   -4.9131706    1.4942349   -3.4189356   0.98843902   0.99630076     9556.617   0.72326849 
   25000   -4.9529596     1.493079   -3.4598806    1.0568766   0.99553003    9440.3646   0.73217511 
   26000   -4.9576122    1.5139658   -3.4436464   0.97915715    1.0094565    9489.0507   0.72841849 
   27000   -4.9238281    1.4962787   -3.4275494    1.0005896   0.99766348    9528.7083   0.72538688 
   28000   -4.9605808    1.4980235   -3.4625573    1.0428222   0.99882684    9430.8073    0.7329171 
   29000   -4.9474113    1.5009612   -3.4464501    1.0963517    1.0007856    9468.5854   0.72999289 
   30000   -4.9384383    1.4921911   -3.4462471    1.0204584   0.99493804    9496.1549   0.72787355 
   31000   -4.9741346    1.5190187   -3.4551159    1.0691918    1.0128256    9415.3112   0.73412337 
   32000   -4.9402582    1.5024439   -3.4378144    1.0109223    1.0017742    9489.9506   0.72834942 
   33000   -4.9597371    1.5073438   -3.4523933    1.0068884    1.0050412    9440.1532    0.7321915 
   34000    -4.918635    1.5028147   -3.4158203   0.88858451    1.0020215     9561.089   0.72293021 
   35000   -4.9754133    1.4898436   -3.4855698    1.0439877   0.99337277    9413.4674   0.73426716 
   36000   -4.9407928    1.5086485   -3.4321443   0.94054194    1.0059112    9511.5257    0.7266973 
   37000   -4.9416601    1.5086216   -3.4330384    1.0589026    1.0058933    9489.0409   0.72841924 
   38000   -4.9534091    1.4972281    -3.456181    1.0768978   0.99829647    9452.8673   0.73120671 
   39000   -4.9255076    1.4952946   -3.4302131    1.0031269   0.99700729    9536.1392   0.72482163 
   40000   -4.9679423    1.5087628   -3.4591795   0.97048757    1.0059874     9422.484   0.73356453 
   41000    -4.945771    1.4959462   -3.4498248   0.99749489    0.9974418    9482.8368   0.72889581 
   42000   -4.9481297    1.5058009   -3.4423289   0.85254542    1.0040125    9523.2174   0.72580513 
   43000   -4.9670436    1.5003942   -3.4666495   0.96279798    1.0004075    9446.4868   0.73170059 
   44000   -4.9213263    1.4901117   -3.4312146    1.0099446   0.99355155     9511.574   0.72669361 
   45000   -4.9547609    1.5126149    -3.442146   0.97835083    1.0085558    9452.1374   0.73126317 
   46000   -4.9651986    1.5054721   -3.4597264     1.052064    1.0037933    9422.6143   0.73355438 
   47000   -4.9411447    1.5070408   -3.4341038    0.9752424    1.0048393    9513.3416   0.72655859 
   48000   -4.9366174    1.4939525   -3.4426648   0.96404992   0.99611248    9491.3892   0.72823902 
   49000   -4.9524967    1.4832841   -3.4692127   0.93670493   0.98899912    9499.5758   0.72761144 
   50000   -4.9553672    1.4772298   -3.4781374   0.92445075   0.98496234    9472.9286   0.72965819 
Loop time of 338.842 on 2 procs for 50000 steps with 6912 atoms

Performance: 63746.508 tau/day, 147.561 timesteps/s
99.1% CPU use with 2 MPI tasks x no OpenMP threads

MPI task timing breakdown:
Section |  min time  |  avg time  |  max time  |%varavg| %total
---------------------------------------------------------------
Pair    | 273.16     | 281.16     | 289.16     |  47.7 | 82.98
Neigh   | 29.13      | 29.486     | 29.842     |   6.6 |  8.70
Comm    | 9.7801     | 18.131     | 26.482     | 196.1 |  5.35
Output  | 0.20319    | 0.20351    | 0.20382    |   0.1 |  0.06
Modify  | 9.0681     | 9.0748     | 9.0815     |   0.2 |  2.68
Other   |            | 0.7871     |            |       |  0.23

Nlocal:    3456 ave 3483 max 3429 min
Histogram: 1 0 0 0 0 0 0 0 0 1
Nghost:    7397.5 ave 7398 max 7397 min
Histogram: 1 0 0 0 0 0 0 0 0 1
Neighs:    288149 ave 298298 max 278000 min
Histogram: 1 0 0 0 0 0 0 0 0 1

Total # of neighbors = 576298
Ave neighs/atom = 83.3764
Neighbor list builds = 2500
Dangerous builds not checked
unfix   intnpt
undump  id


#Using Nvt to calculate the rdf

fix         intnvt all nvt temp ${temp} ${temp} ${tdamp}
fix         intnvt all nvt temp 1 ${temp} ${tdamp}
fix         intnvt all nvt temp 1 1 ${tdamp}
fix         intnvt all nvt temp 1 1 1
compute     rdfnvt all rdf 100 1 1 1 2 2 2
fix         rdfnvt all ave/time ${Nevery} ${Nrepeat} ${Nfreq} c_rdfnvt[*] file systemnvt.rdf.${eps} mode vector ave window 2
fix         rdfnvt all ave/time 1000 ${Nrepeat} ${Nfreq} c_rdfnvt[*] file systemnvt.rdf.${eps} mode vector ave window 2
fix         rdfnvt all ave/time 1000 100 ${Nfreq} c_rdfnvt[*] file systemnvt.rdf.${eps} mode vector ave window 2
fix         rdfnvt all ave/time 1000 100 100000 c_rdfnvt[*] file systemnvt.rdf.${eps} mode vector ave window 2
fix         rdfnvt all ave/time 1000 100 100000 c_rdfnvt[*] file systemnvt.rdf.1.5 mode vector ave window 2
dump        idnvt all atom 1000 out.dump.nvt.${eps}.lammpstrj
dump        idnvt all atom 1000 out.dump.nvt.1.5.lammpstrj
thermo      ${nthermo}
thermo      1000
thermo_style custom step pe ke etotal press temp vol density
restart     100000 restartnvt1.data restartnvt2.data
run         200000
Neighbor list info ...
  update every 20 steps, delay 0 steps, check no
  max neighbors/atom: 2000, page size: 100000
  master list distance cutoff = 3.8
  ghost atom cutoff = 3.8
  binsize = 1.9, bins = 12 12 12
  2 neighbor lists, perpetual/occasional/extra = 1 1 0
  (1) pair lj/cut, perpetual
      attributes: half, newton on
      pair build: half/bin/atomonly/newton
      stencil: half/bin/3d/newton
      bin: standard
  (2) compute rdf, occasional, copy from (1)
      attributes: half, newton on
      pair build: copy
      stencil: none
      bin: none
Per MPI rank memory allocation (min/avg/max) = 4.925 | 5.116 | 5.307 Mbytes
Step PotEng KinEng TotEng Press Temp Volume Density 
   50000   -4.9553672    1.4772298   -3.4781374   0.92445075   0.98496234    9472.9286   0.72965819 
   51000   -4.9420056    1.4867623   -3.4552433    1.0179449   0.99131827    9472.9286   0.72965819 
   52000    -4.946556    1.4823693   -3.4641868    1.0166276   0.98838916    9472.9286   0.72965819 
   53000   -4.9596427     1.489464   -3.4701787    0.9340284   0.99311969    9472.9286   0.72965819 
   54000    -4.949067    1.4729523   -3.4761147   0.97913069   0.98211029    9472.9286   0.72965819 
   55000   -4.9665825    1.4722485    -3.494334   0.88384325   0.98164102    9472.9286   0.72965819 
   56000   -4.9467908    1.4945362   -3.4522546     1.014452   0.99650164    9472.9286   0.72965819 
   57000   -4.9481962    1.4955904   -3.4526059    1.0526387   0.99720452    9472.9286   0.72965819 
   58000   -4.9450963    1.5061562   -3.4389401    1.0420243    1.0042494    9472.9286   0.72965819 
   59000   -4.9384186    1.5090321   -3.4293865    1.0788573     1.006167    9472.9286   0.72965819 
   60000   -4.9323463    1.4966826   -3.4356637    1.0335375   0.99793275    9472.9286   0.72965819 
   61000   -4.9271222    1.4826299   -3.4444923    1.0899661   0.98856293    9472.9286   0.72965819 
   62000   -4.9454422    1.4930698   -3.4523724   0.99959385   0.99552389    9472.9286   0.72965819 
   63000   -4.9524641    1.5022094   -3.4502548   0.96466963    1.0016178    9472.9286   0.72965819 
   64000   -4.9482192    1.5102873   -3.4379318   0.96573891    1.0070039    9472.9286   0.72965819 
   65000   -4.9449081    1.5076955   -3.4372126    1.0093721    1.0052758    9472.9286   0.72965819 
   66000   -4.9402218     1.506393   -3.4338288   0.98685618    1.0044073    9472.9286   0.72965819 
   67000   -4.9442677    1.4874391   -3.4568286    0.9788369   0.99176955    9472.9286   0.72965819 
   68000   -4.9557968    1.4992794   -3.4565174    1.0052167   0.99966424    9472.9286   0.72965819 
   69000   -4.9535114    1.5120164    -3.441495   0.94002186    1.0081568    9472.9286   0.72965819 
   70000   -4.9284085    1.5058382   -3.4225703    1.1097798    1.0040374    9472.9286   0.72965819 
   71000   -4.9287505    1.5056052   -3.4231453    1.0597065     1.003882    9472.9286   0.72965819 
   72000   -4.9484528    1.5163918    -3.432061   0.96619366    1.0110741    9472.9286   0.72965819 
   73000   -4.9508715     1.515352   -3.4355195    1.0119784    1.0103809    9472.9286   0.72965819 
   74000   -4.9353845    1.5137545     -3.42163    1.0652819    1.0093157    9472.9286   0.72965819 
   75000   -4.9278178     1.481939   -3.4458788    1.1062345   0.98810227    9472.9286   0.72965819 
   76000   -4.9611131    1.4935006   -3.4676126   0.94416859   0.99581111    9472.9286   0.72965819 
   77000   -4.9553617    1.4942498   -3.4611119    1.0014807   0.99631065    9472.9286   0.72965819 
   78000   -4.9384777    1.4730809   -3.4653968    1.0165713   0.98219606    9472.9286   0.72965819 
   79000   -4.9430799    1.4691626   -3.4739173    1.0150109   0.97958343    9472.9286   0.72965819 
   80000    -4.964831    1.5106079    -3.454223    0.9876454    1.0072177    9472.9286   0.72965819 
   81000   -4.9580773    1.5071042   -3.4509731     1.036061    1.0048815    9472.9286   0.72965819 
   82000   -4.9646722    1.5163258   -3.4483464   0.94893052    1.0110301    9472.9286   0.72965819 
   83000   -4.9429317    1.5050856   -3.4378461    1.0579017    1.0035356    9472.9286   0.72965819 
   84000   -4.9522761    1.5042755   -3.4480006    1.0424805    1.0029954    9472.9286   0.72965819 
   85000   -4.9365886    1.4871336    -3.449455    1.0636891   0.99156585    9472.9286   0.72965819 
   86000   -4.9440784    1.4960069   -3.4480715    1.0359701   0.99748224    9472.9286   0.72965819 
   87000   -4.9453734    1.4918577   -3.4535157    1.0190386   0.99471571    9472.9286   0.72965819 
   88000   -4.9495918    1.4947308   -3.4548609   0.93031818   0.99663142    9472.9286   0.72965819 
   89000   -4.9513758    1.4935167   -3.4578591    1.0006679    0.9958219    9472.9286   0.72965819 
   90000   -4.9600974    1.4891028   -3.4709946    0.9967903   0.99287887    9472.9286   0.72965819 
   91000   -4.9653808    1.4888828   -3.4764981   0.95639672   0.99273213    9472.9286   0.72965819 
   92000   -4.9459411    1.4587332    -3.487208   0.97773803   0.97262949    9472.9286   0.72965819 
   93000   -4.9633647    1.4884169   -3.4749478   0.93660868   0.99242148    9472.9286   0.72965819 
   94000   -4.9520649    1.4891235   -3.4629414   0.95673248   0.99289261    9472.9286   0.72965819 
   95000   -4.9495264    1.4935674   -3.4559591    1.0160446   0.99585567    9472.9286   0.72965819 
   96000   -4.9514596     1.495176   -3.4562835    1.0228857   0.99692826    9472.9286   0.72965819 
   97000   -4.9511574    1.4893115   -3.4618458   0.92950139   0.99301802    9472.9286   0.72965819 
   98000   -4.9582496    1.4959806    -3.462269    1.0169713   0.99746473    9472.9286   0.72965819 
   99000   -4.9685026    1.5073762   -3.4611263   0.90714323    1.0050629    9472.9286   0.72965819 
  100000   -4.9651125    1.5082922   -3.4568203   0.90440583    1.0056736    9472.9286   0.72965819 
  101000   -4.9436025    1.4992916   -3.4443109    1.0351016   0.99967235    9472.9286   0.72965819 
  102000   -4.9346594    1.4944008   -3.4402586    1.0946356   0.99641137    9472.9286   0.72965819 
  103000   -4.9329082    1.5090559   -3.4238523     1.094283    1.0061828    9472.9286   0.72965819 
  104000   -4.9313984    1.4846804    -3.446718    1.0482679   0.98993013    9472.9286   0.72965819 
  105000   -4.9460544    1.4803154    -3.465739    1.0147597   0.98701972    9472.9286   0.72965819 
  106000   -4.9379028    1.4860062   -3.4518966   0.97596557   0.99081415    9472.9286   0.72965819 
  107000   -4.9734851    1.5032748   -3.4702103   0.91780116    1.0023282    9472.9286   0.72965819 
  108000    -4.955191    1.4867881   -3.4684028    0.9932017    0.9913355    9472.9286   0.72965819 
  109000   -4.9718578    1.4868451   -3.4850127   0.95193702   0.99137347    9472.9286   0.72965819 
  110000   -4.9348324    1.4937826   -3.4410498    1.0441659   0.99599918    9472.9286   0.72965819 
  111000   -4.9369245    1.4684269   -3.4684977      1.04978    0.9790929    9472.9286   0.72965819 
  112000   -4.9382287     1.479255   -3.4589737    1.0694951   0.98631271    9472.9286   0.72965819 
  113000   -4.9563912    1.5033729   -3.4530183   0.97718575    1.0023936    9472.9286   0.72965819 
  114000   -4.9445748    1.4852426   -3.4593322   0.97537376   0.99030501    9472.9286   0.72965819 
  115000     -4.96159    1.5174654   -3.4441246   0.96135551      1.01179    9472.9286   0.72965819 
  116000   -4.9605127    1.5061314   -3.4543813   0.97728927    1.0042329    9472.9286   0.72965819 
  117000   -4.9495408    1.5063269   -3.4432139   0.93903289    1.0043633    9472.9286   0.72965819 
  118000   -4.9548516     1.514906   -3.4399456   0.97396443    1.0100835    9472.9286   0.72965819 
  119000    -4.951544    1.5144186   -3.4371254   0.99120358    1.0097585    9472.9286   0.72965819 
  120000   -4.9602801    1.5053493   -3.4549308   0.96749273    1.0037114    9472.9286   0.72965819 
  121000   -4.9554393    1.5011408   -3.4542985   0.97491686    1.0009053    9472.9286   0.72965819 
  122000   -4.9460821    1.5015944   -3.4444876    1.0136444    1.0012078    9472.9286   0.72965819 
  123000    -4.933101       1.4858    -3.447301    1.0818735   0.99067666    9472.9286   0.72965819 
  124000   -4.9568218    1.4981599    -3.458662   0.95690595   0.99891776    9472.9286   0.72965819 
  125000   -4.9554591    1.4843173   -3.4711417   0.93904579   0.98968808    9472.9286   0.72965819 
  126000   -4.9317397    1.4849868    -3.446753    1.0101564   0.99013442    9472.9286   0.72965819 
  127000   -4.9367108    1.4835553   -3.4531554    1.0343938      0.98918    9472.9286   0.72965819 
  128000   -4.9581863    1.5120702   -3.4461161     1.008725    1.0081927    9472.9286   0.72965819 
  129000   -4.9593574    1.5053235    -3.454034     0.975369    1.0036942    9472.9286   0.72965819 
  130000   -4.9548509    1.4840186   -3.4708323    0.9911043    0.9894889    9472.9286   0.72965819 
  131000   -4.9534662    1.5209112    -3.432555    0.9431089    1.0140875    9472.9286   0.72965819 
  132000   -4.9498644    1.5083652   -3.4414992    1.0358501    1.0057223    9472.9286   0.72965819 
  133000   -4.9569418    1.5102972   -3.4466446   0.97158598    1.0070105    9472.9286   0.72965819 
  134000   -4.9378622    1.4949915   -3.4428708    1.0327711    0.9968052    9472.9286   0.72965819 
  135000   -4.9431293    1.5037905   -3.4393388   0.99491161    1.0026721    9472.9286   0.72965819 
  136000   -4.9529104    1.5186765   -3.4342339    1.0607525    1.0125975    9472.9286   0.72965819 
  137000   -4.9356017    1.4945214   -3.4410804    1.0660487   0.99649176    9472.9286   0.72965819 
  138000   -4.9354736    1.4999496    -3.435524    1.0461102    1.0001111    9472.9286   0.72965819 
  139000     -4.93268    1.4883006   -3.4443794    1.0712348   0.99234397    9472.9286   0.72965819 
  140000   -4.9637915    1.5128723   -3.4509192   0.92547055    1.0087275    9472.9286   0.72965819 
  141000   -4.9468178    1.4952376   -3.4515801    1.0008035   0.99696933    9472.9286   0.72965819 
  142000   -4.9430829    1.4876133   -3.4554696    1.0536579   0.99188571    9472.9286   0.72965819 
  143000     -4.96387    1.4986257   -3.4652443   0.92214325   0.99922837    9472.9286   0.72965819 
  144000   -4.9753943    1.5001972   -3.4751971   0.90760288    1.0002762    9472.9286   0.72965819 
  145000   -4.9588606    1.4756008   -3.4832598   0.97048545   0.98387624    9472.9286   0.72965819 
  146000   -4.9526363    1.5101356   -3.4425006   0.97803256    1.0069028    9472.9286   0.72965819 
  147000   -4.9352383    1.4961015   -3.4391368    1.0529361   0.99754532    9472.9286   0.72965819 
  148000   -4.9537646    1.5184419   -3.4353227   0.94461098    1.0124411    9472.9286   0.72965819 
  149000   -4.9423569    1.5022005   -3.4401565    1.0267359    1.0016119    9472.9286   0.72965819 
  150000   -4.9455676    1.5077654   -3.4378022    1.0440258    1.0053224    9472.9286   0.72965819 
  151000   -4.9289655    1.5043091   -3.4246565    1.0442989    1.0030178    9472.9286   0.72965819 
  152000   -4.9392776    1.4984546    -3.440823     1.028666   0.99911426    9472.9286   0.72965819 
  153000   -4.9519907     1.505702   -3.4462887   0.93877215    1.0039466    9472.9286   0.72965819 
  154000   -4.9657269    1.5144155   -3.4513114   0.95596898    1.0097564    9472.9286   0.72965819 
  155000   -4.9443025    1.5124578   -3.4318447    1.0857365    1.0084511    9472.9286   0.72965819 
  156000   -4.9461828    1.5118606   -3.4343221    1.0229528    1.0080529    9472.9286   0.72965819 
  157000   -4.9399236     1.476387   -3.4635366    1.0585686   0.98440044    9472.9286   0.72965819 
  158000   -4.9507245    1.5005093   -3.4502152   0.98081032    1.0004843    9472.9286   0.72965819 
  159000   -4.9395696    1.4849396     -3.45463     1.032621   0.99010295    9472.9286   0.72965819 
  160000   -4.9579521    1.5010632    -3.456889   0.95420067    1.0008536    9472.9286   0.72965819 
  161000   -4.9471217    1.4803793   -3.4667424    1.0070724   0.98706235    9472.9286   0.72965819 
  162000   -4.9521115    1.4954088   -3.4567027    1.0380162   0.99708347    9472.9286   0.72965819 
  163000    -4.943875    1.4784654   -3.4654096    0.9918302    0.9857862    9472.9286   0.72965819 
  164000   -4.9513573     1.496588   -3.4547693    1.0134278   0.99786971    9472.9286   0.72965819 
  165000   -4.9604249    1.5174343   -3.4429906   0.95330185    1.0117693    9472.9286   0.72965819 
  166000   -4.9336044    1.5157624    -3.417842    1.0434255    1.0106545    9472.9286   0.72965819 
  167000   -4.9294295    1.5187476   -3.4106819    1.0666581    1.0126449    9472.9286   0.72965819 
  168000   -4.9450735    1.5230612   -3.4220123    1.0289875    1.0155211    9472.9286   0.72965819 
  169000   -4.9476872    1.4794286   -3.4682586    1.0754624   0.98642845    9472.9286   0.72965819 
  170000   -4.9525426    1.4820667   -3.4704759   0.97527551   0.98818744    9472.9286   0.72965819 
  171000   -4.9667654     1.496344   -3.4704214   0.94208209   0.99770699    9472.9286   0.72965819 
  172000   -4.9730693    1.5064504   -3.4666189   0.95610561    1.0044456    9472.9286   0.72965819 
  173000   -4.9271792    1.5177611   -3.4094181    1.1243145    1.0119872    9472.9286   0.72965819 
  174000   -4.9385872    1.5199485   -3.4186387    1.0864219    1.0134456    9472.9286   0.72965819 
  175000   -4.9457654     1.513982   -3.4317834   0.98576283    1.0094673    9472.9286   0.72965819 
  176000   -4.9369608    1.5258028    -3.411158    1.1211721    1.0173491    9472.9286   0.72965819 
  177000   -4.9355336    1.5038603   -3.4316733   0.99221246    1.0027186    9472.9286   0.72965819 
  178000   -4.9540963    1.5114995   -3.4425968   0.98451414    1.0078121    9472.9286   0.72965819 
  179000   -4.9365855    1.4988823   -3.4377032    1.0591511   0.99939944    9472.9286   0.72965819 
  180000   -4.9524513    1.5162014   -3.4362498    1.0155462    1.0109472    9472.9286   0.72965819 
  181000   -4.9555205    1.5158295   -3.4396909    1.0381254    1.0106992    9472.9286   0.72965819 
  182000   -4.9540062    1.5133024   -3.4407038   0.92204491    1.0090143    9472.9286   0.72965819 
  183000   -4.9539859    1.5021715   -3.4518144   0.99697385    1.0015926    9472.9286   0.72965819 
  184000   -4.9472913    1.4883449   -3.4589464   0.99238268   0.99237351    9472.9286   0.72965819 
  185000   -4.9522466    1.4772834   -3.4749632   0.95386192   0.98499811    9472.9286   0.72965819 
  186000   -4.9309937    1.4749573   -3.4560364    1.0484292   0.98344716    9472.9286   0.72965819 
  187000   -4.9689047    1.4991076   -3.4697971   0.90667184    0.9995497    9472.9286   0.72965819 
  188000   -4.9493344    1.4707288   -3.4786056   0.98976942   0.98062774    9472.9286   0.72965819 
  189000    -4.962338    1.4759636   -3.4863744   0.95326058   0.98411811    9472.9286   0.72965819 
  190000   -4.9510425    1.4862298   -3.4648127   0.98507513   0.99096322    9472.9286   0.72965819 
  191000   -4.9518188    1.4945494   -3.4572695   0.92102104   0.99651041    9472.9286   0.72965819 
  192000   -4.9305709     1.480551   -3.4500199    1.0527203   0.98717684    9472.9286   0.72965819 
  193000   -4.9516346    1.4977332   -3.4539014   0.93701827    0.9986333    9472.9286   0.72965819 
  194000   -4.9458394    1.4816709   -3.4641685   0.98055089    0.9879235    9472.9286   0.72965819 
  195000   -4.9595266    1.4738172   -3.4857094   0.91723186   0.98268698    9472.9286   0.72965819 
  196000     -4.94094    1.4973107   -3.4436293    1.0039309   0.99835154    9472.9286   0.72965819 
  197000    -4.945724    1.5169117   -3.4288123    1.0461658    1.0114208    9472.9286   0.72965819 
  198000   -4.9485848    1.5083005   -3.4402843     0.947799    1.0056792    9472.9286   0.72965819 
  199000   -4.9426057     1.512554   -3.4300517    1.0370204    1.0085152    9472.9286   0.72965819 
  200000   -4.9536294    1.5024056   -3.4512238    1.0115428    1.0017486    9472.9286   0.72965819 
  201000   -4.9585371    1.5051818   -3.4533553   0.96006636    1.0035997    9472.9286   0.72965819 
  202000   -4.9620553      1.50778   -3.4542752   0.96243268    1.0053321    9472.9286   0.72965819 
  203000   -4.9595698    1.4864337   -3.4731361    1.0160929   0.99109921    9472.9286   0.72965819 
  204000   -4.9457013    1.4908945   -3.4548067   0.99419896   0.99407352    9472.9286   0.72965819 
  205000    -4.955869    1.4827286   -3.4731404   0.98188855   0.98862876    9472.9286   0.72965819 
  206000    -4.953259    1.5110576   -3.4422014    1.0135831    1.0075175    9472.9286   0.72965819 
  207000   -4.9497511    1.5120309   -3.4377202    1.0193122    1.0081664    9472.9286   0.72965819 
  208000   -4.9334527    1.5069836   -3.4264691    1.0656566    1.0048011    9472.9286   0.72965819 
  209000   -4.9411565    1.5053996   -3.4357568    1.0300288     1.003745    9472.9286   0.72965819 
  210000    -4.947761    1.4980673   -3.4496937    1.0470625   0.99885607    9472.9286   0.72965819 
  211000   -4.9478818    1.4881507   -3.4597311   0.98295827   0.99224402    9472.9286   0.72965819 
  212000   -4.9689531    1.4973118   -3.4716412   0.88522096   0.99835232    9472.9286   0.72965819 
  213000   -4.9514436    1.4954226   -3.4560211   0.98823289   0.99709262    9472.9286   0.72965819 
  214000   -4.9579968    1.4957265   -3.4622703   0.90897866   0.99729531    9472.9286   0.72965819 
  215000   -4.9523316    1.5048894   -3.4474422    1.0381655    1.0034048    9472.9286   0.72965819 
  216000   -4.9419862    1.5131367   -3.4288494    1.0919721    1.0089038    9472.9286   0.72965819 
  217000   -4.9501295    1.5083288   -3.4418007   0.95243122     1.005698    9472.9286   0.72965819 
  218000   -4.9441764     1.505641   -3.4385354   0.98786839    1.0039059    9472.9286   0.72965819 
  219000   -4.9309301    1.5117545   -3.4191756    1.1064515    1.0079821    9472.9286   0.72965819 
  220000   -4.9335664    1.5270382   -3.4065282    1.0197651    1.0181728    9472.9286   0.72965819 
  221000    -4.945186    1.4961442   -3.4490418    1.0021717   0.99757381    9472.9286   0.72965819 
  222000   -4.9540282    1.4914212    -3.462607   0.94284715   0.99442469    9472.9286   0.72965819 
  223000   -4.9719187    1.4869861   -3.4849326   0.86983544    0.9914675    9472.9286   0.72965819 
  224000    -4.962011    1.4863327   -3.4756783   0.95901642   0.99103182    9472.9286   0.72965819 
  225000    -4.959086      1.49536    -3.463726   0.94029511   0.99705093    9472.9286   0.72965819 
  226000    -4.945923    1.4948354   -3.4510876   0.94174291   0.99670115    9472.9286   0.72965819 
  227000   -4.9588388     1.492328   -3.4665108   0.92332368   0.99502926    9472.9286   0.72965819 
  228000   -4.9534938    1.4727409   -3.4807529   0.91542819   0.98196932    9472.9286   0.72965819 
  229000   -4.9692181    1.4758426   -3.4933755   0.94503924   0.98403742    9472.9286   0.72965819 
  230000   -4.9561515    1.4865876   -3.4695638   0.94895669   0.99120183    9472.9286   0.72965819 
  231000   -4.9326319    1.4761578    -3.456474    1.0640119    0.9842476    9472.9286   0.72965819 
  232000   -4.9476654     1.492018   -3.4556474      1.06137   0.99482258    9472.9286   0.72965819 
  233000   -4.9583775    1.4868971   -3.4714804   0.97701666   0.99140816    9472.9286   0.72965819 
  234000   -4.9587129    1.4798004   -3.4789125   0.95647994   0.98667633    9472.9286   0.72965819 
  235000   -4.9687227    1.5030281   -3.4656946   0.88661989    1.0021637    9472.9286   0.72965819 
  236000   -4.9438133    1.4659096   -3.4779037    1.0253832   0.97741445    9472.9286   0.72965819 
  237000   -4.9531006    1.4678385   -3.4852621   0.94697386   0.97870059    9472.9286   0.72965819 
  238000   -4.9305622    1.4749488   -3.4556134    1.0443813   0.98344146    9472.9286   0.72965819 
  239000   -4.9552162    1.4786642    -3.476552   0.97945658   0.98591876    9472.9286   0.72965819 
  240000   -4.9518706    1.4934079   -3.4584627    1.0087572   0.99574935    9472.9286   0.72965819 
  241000   -4.9526108    1.4905826   -3.4620282     1.024083   0.99386553    9472.9286   0.72965819 
  242000   -4.9572386    1.4976328   -3.4596057   0.96743071   0.99856637    9472.9286   0.72965819 
  243000   -4.9453955    1.5127835    -3.432612    1.0710632    1.0086682    9472.9286   0.72965819 
  244000   -4.9406376    1.4986272   -3.4420105    1.0596592   0.99922933    9472.9286   0.72965819 
  245000     -4.94033    1.5017879   -3.4385422    1.0252475    1.0013368    9472.9286   0.72965819 
  246000   -4.9291128    1.5115705   -3.4175424    1.0632488    1.0078594    9472.9286   0.72965819 
  247000   -4.9423362    1.5022963   -3.4400399    1.0484174    1.0016758    9472.9286   0.72965819 
  248000   -4.9612897    1.4976148   -3.4636749   0.91382809   0.99855432    9472.9286   0.72965819 
  249000   -4.9295326    1.4712405    -3.458292    1.0325856   0.98096895    9472.9286   0.72965819 
  250000   -4.9551926    1.5035385   -3.4516541    1.0328406     1.002504    9472.9286   0.72965819 
Loop time of 1372.5 on 2 procs for 200000 steps with 6912 atoms

Performance: 62950.813 tau/day, 145.719 timesteps/s
99.1% CPU use with 2 MPI tasks x no OpenMP threads

MPI task timing breakdown:
Section |  min time  |  avg time  |  max time  |%varavg| %total
---------------------------------------------------------------
Pair    | 1127.6     | 1156.1     | 1184.6     |  83.8 | 84.24
Neigh   | 120.96     | 121.82     | 122.68     |   7.8 |  8.88
Comm    | 41.69      | 71.036     | 100.38     | 348.2 |  5.18
Output  | 0.90086    | 0.90195    | 0.90305    |   0.1 |  0.07
Modify  | 19.165     | 19.229     | 19.293     |   1.5 |  1.40
Other   |            | 3.385      |            |       |  0.25

Nlocal:    3456 ave 3477 max 3435 min
Histogram: 1 0 0 0 0 0 0 0 0 1
Nghost:    7458 ave 7466 max 7450 min
Histogram: 1 0 0 0 0 0 0 0 0 1
Neighs:    288262 ave 288595 max 287928 min
Histogram: 1 0 0 0 0 0 0 0 0 1

Total # of neighbors = 576523
Ave neighs/atom = 83.409
Neighbor list builds = 10000
Dangerous builds not checked
unfix       intnvt
uncompute   rdfnvt
unfix       rdfnvt
undump      idnvt

next      a
jump      in.melt epsloop
variable    a loop 10   #loop parameter defined
variable    eps equal 0.5+($a-1)*0.5
variable    eps equal 0.5+(4-1)*0.5
if "${eps} > 2" then "variable eps equal 2.0+($a-4)*2.0" #epsilon value will increase at rate of 0.5 from 0.5 till 2.0


#Seeting the pair coefficient for all types of interaction
pair_coeff	1 1 10.0 1.0 3.5  # epsilon sigma and rcut is defined repectively
pair_coeff	1 2 ${eps} 1.0 3.5
pair_coeff	1 2 2 1.0 3.5
pair_coeff	2 2 0.8 1.0 3.5 # Use epsilon(nanoparticle)=10.0


minimize  1.0e-4 1.0e-6 100 1000
WARNING: Using 'neigh_modify every 1 delay 0 check yes' setting during minimization (../min.cpp:190)
Neighbor list info ...
  update every 1 steps, delay 0 steps, check yes
  max neighbors/atom: 2000, page size: 100000
  master list distance cutoff = 3.8
  ghost atom cutoff = 3.8
  binsize = 1.9, bins = 12 12 12
  1 neighbor lists, perpetual/occasional/extra = 1 0 0
  (1) pair lj/cut, perpetual
      attributes: half, newton on
      pair build: half/bin/atomonly/newton
      stencil: half/bin/3d/newton
      bin: standard
Per MPI rank memory allocation (min/avg/max) = 5.417 | 5.418 | 5.418 Mbytes
Step PotEng KinEng TotEng Press Temp Volume Density 
  250000   -4.9942576    1.5035385   -3.4907191    1.0214468     1.002504    9472.9286   0.72965819 
  250100   -6.1080206    1.5035385   -4.6044821   -1.4342572     1.002504    9472.9286   0.72965819 
Loop time of 1.99455 on 2 procs for 100 steps with 6912 atoms

99.3% CPU use with 2 MPI tasks x no OpenMP threads

Minimization stats:
  Stopping criterion = max iterations
  Energy initial, next-to-last, final = 
        -4.99425755709     -6.10403287788      -6.1080205808
  Force two-norm initial, final = 2316.58 278.185
  Force max component initial, final = 185.807 59.9142
  Final line search alpha, max atom move = 0.00180317 0.108035
  Iterations, force evaluations = 100 196

MPI task timing breakdown:
Section |  min time  |  avg time  |  max time  |%varavg| %total
---------------------------------------------------------------
Pair    | 1.6065     | 1.6086     | 1.6106     |   0.2 | 80.65
Neigh   | 0.27338    | 0.27798    | 0.28258    |   0.9 | 13.94
Comm    | 0.070829   | 0.077495   | 0.08416    |   2.4 |  3.89
Output  | 7.229e-05  | 8.087e-05  | 8.945e-05  |   0.0 |  0.00
Modify  | 0          | 0          | 0          |   0.0 |  0.00
Other   |            | 0.03044    |            |       |  1.53

Nlocal:    3456 ave 3465 max 3447 min
Histogram: 1 0 0 0 0 0 0 0 0 1
Nghost:    7401.5 ave 7405 max 7398 min
Histogram: 1 0 0 0 0 0 0 0 0 1
Neighs:    288970 ave 290415 max 287526 min
Histogram: 1 0 0 0 0 0 0 0 0 1

Total # of neighbors = 577941
Ave neighs/atom = 83.6141
Neighbor list builds = 28
Dangerous builds not checked

neighbor	0.3 bin   #skin factor is taken to 0.3
neigh_modify	every 20 delay 0 check no
timestep 0.005
variable nthermo equal 1000
variable temp equal 1.0
variable tdamp equal 1.0
variable pext equal 1.0
variable pdamp equal 10.0
variable Nevery equal 1000
variable Nfreq equal 100000
variable Nrepeat equal 100
reset_timestep 0

#Using Npt to Calculate the rdf

fix 		intnpt all npt temp ${temp} ${temp} ${tdamp} iso ${pext} ${pext} ${pdamp}
fix 		intnpt all npt temp 1 ${temp} ${tdamp} iso ${pext} ${pext} ${pdamp}
fix 		intnpt all npt temp 1 1 ${tdamp} iso ${pext} ${pext} ${pdamp}
fix 		intnpt all npt temp 1 1 1 iso ${pext} ${pext} ${pdamp}
fix 		intnpt all npt temp 1 1 1 iso 1 ${pext} ${pdamp}
fix 		intnpt all npt temp 1 1 1 iso 1 1 ${pdamp}
fix 		intnpt all npt temp 1 1 1 iso 1 1 10
dump		id all atom 1000 out.dump.npt.${eps}.lammpstrj
dump		id all atom 1000 out.dump.npt.2.lammpstrj
thermo		${nthermo}
thermo		1000
thermo_style custom step pe ke etotal press temp vol density
restart 25000 restartnpt1.data restartnpt2.data
run		  50000
Per MPI rank memory allocation (min/avg/max) = 4.925 | 4.925 | 4.925 Mbytes
Step PotEng KinEng TotEng Press Temp Volume Density 
       0   -6.1080206    1.5035385   -4.6044821   -1.4342572     1.002504    9472.9286   0.72965819 
    1000     -5.28597    1.4736638   -3.8123062    1.4875212   0.98258468    8813.2272   0.78427571 
    2000   -5.0497025    1.5019156   -3.5477869     1.108705    1.0014219    9348.1323   0.73939904 
    3000   -5.0007252    1.5088637   -3.4918615    1.0157105    1.0060547    9482.9257   0.72888898 
    4000   -5.0003541    1.5054866   -3.4948676   0.96523549     1.003803    9469.9477   0.72988788 
    5000   -5.0046021    1.5072736   -3.4973285    1.0270693    1.0049945     9449.631   0.73145713 
    6000   -4.9991635    1.5046722   -3.4944913    1.0430101    1.0032599    9446.5465   0.73169597 
    7000   -4.9876198    1.5063183   -3.4813014    1.0449826    1.0043575     9477.356   0.72931733 
    8000   -5.0079924    1.5145002   -3.4934922    1.0367896    1.0098129    9450.9033   0.73135866 
    9000   -5.0026466    1.5059917   -3.4966549    1.0478442    1.0041397    9441.1197   0.73211655 
   10000   -4.9844655    1.4928962   -3.4915693    1.1195283   0.99540813    9473.7464   0.72959521 
   11000   -5.0237773    1.5021358   -3.5216415   0.93225068    1.0015688    9419.8086   0.73377287 
   12000    -5.003952    1.5046322   -3.4993198   0.96014465    1.0032333    9479.6511   0.72914076 
   13000   -4.9933616    1.4943568   -3.4990049   0.89491043     0.996382    9491.7259   0.72821319 
   14000   -5.0264216    1.4806571   -3.5457645    1.0720335   0.98724758    9409.0141   0.73461469 
   15000   -5.0152022    1.4683199   -3.5468823    1.0024409   0.97902156    9431.5581   0.73285876 
   16000   -4.9881252    1.4743172    -3.513808    1.0340355   0.98302039    9463.8967   0.73035455 
   17000   -4.9975698    1.4890848    -3.508485   0.99472985   0.99286685    9479.0881   0.72918407 
   18000   -5.0129781    1.4866935   -3.5262847    1.0619266   0.99127238    9423.6605   0.73347295 
   19000   -4.9856638    1.5361479    -3.449516    1.0574195    1.0242468    9481.3368   0.72901112 
   20000   -4.9849806    1.5138154   -3.4711651     1.050495    1.0093563    9490.9465   0.72827299 
   21000   -4.9971715    1.4766171   -3.5205544    1.0699637   0.98455385     9431.796   0.73284028 
   22000     -4.99445    1.5162586   -3.4781914   0.90716031    1.0109853    9514.4525   0.72647375 
   23000   -5.0300792    1.5275801   -3.5024991   0.93905767    1.0185341    9447.4696   0.73162448 
   24000   -5.0123998    1.5101135   -3.5022863    1.0929112     1.006888    9405.1668    0.7349152 
   25000   -5.0105423    1.5228452   -3.4876971   0.93487377     1.015377    9465.3459   0.73024273 
   26000   -4.9939926     1.519082   -3.4749106    1.1125019    1.0128678    9433.7071   0.73269182 
   27000   -4.9926069    1.5090193   -3.4835876   0.92014236    1.0061585    9491.9401   0.72819676 
   28000   -5.0218757      1.49464   -3.5272357    1.0111448   0.99657084    9426.9666   0.73321571 
   29000   -4.9967848     1.473243   -3.5235418   0.84210134   0.98230411    9524.3429   0.72571936 
   30000   -5.0165934    1.4905901   -3.5260034   0.99818488   0.99387051    9426.5671   0.73324678 
   31000   -4.9598636    1.5067821   -3.4530815    1.0300742    1.0046668     9539.002    0.7246041 
   32000   -5.0189044    1.5145302   -3.5043742   0.92854468    1.0098329    9470.0376   0.72988094 
   33000   -5.0080317     1.480399   -3.5276327   0.98997586   0.98707548    9477.1346   0.72933437 
   34000   -5.0158074    1.4803693   -3.5354382    1.0090318   0.98705564    9441.3461     0.732099 
   35000   -5.0063963    1.4947609   -3.5116355    1.0463565   0.99665145    9455.8645   0.73097494 
   36000   -4.9995501    1.4978597   -3.5016904    1.1086297   0.99871764    9450.9055   0.73135849 
   37000   -4.9988845    1.4965605    -3.502324   0.92217517   0.99785139      9518.32   0.72617857 
   38000   -5.0138626    1.4970498   -3.5168128    1.0075653   0.99817762    9458.1016   0.73080205 
   39000   -5.0030726      1.48163   -3.5214425   0.83067595   0.98789628    9505.5903   0.72715106 
   40000   -5.0143668    1.4973905   -3.5169763    0.8857364   0.99840479    9476.7072   0.72936726 
   41000   -5.0286994    1.4981868   -3.5305125    1.0585908   0.99893575    9421.9681   0.73360469 
   42000    -5.037563    1.5132724   -3.5242905   0.94489098    1.0089943    9433.1075   0.73273839 
   43000   -5.0167282    1.5126878   -3.5040404    1.0058854    1.0086045    9434.1082   0.73266066 
   44000   -4.9853834    1.5084799   -3.4769035   0.97990973    1.0057988    9510.4818   0.72677706 
   45000   -5.0296172    1.4863089   -3.5433084    1.0683198   0.99101595    9391.2409   0.73600497 
   46000   -4.9989245    1.4957539   -3.5031705    1.0169265   0.99731358    9482.2966   0.72893733 
   47000   -4.9938088    1.5055321   -3.4882767   0.91108968    1.0038333    9519.9571   0.72605369 
   48000   -5.0495642    1.5059093   -3.5436549    0.9711276    1.0040848    9378.6929   0.73698969 
   49000    -4.977051    1.4949266   -3.4821243     1.002708   0.99676195    9491.5656   0.72822549 
   50000   -5.0016773    1.5006602   -3.5010171   0.92962899    1.0005849    9498.8263   0.72766885 
Loop time of 284.359 on 2 procs for 50000 steps with 6912 atoms

Performance: 75960.392 tau/day, 175.834 timesteps/s
99.3% CPU use with 2 MPI tasks x no OpenMP threads

MPI task timing breakdown:
Section |  min time  |  avg time  |  max time  |%varavg| %total
---------------------------------------------------------------
Pair    | 241.13     | 241.34     | 241.55     |   1.3 | 84.87
Neigh   | 25.279     | 25.582     | 25.885     |   6.0 |  9.00
Comm    | 8.8438     | 8.9933     | 9.1429     |   5.0 |  3.16
Output  | 0.16293    | 0.16318    | 0.16343    |   0.1 |  0.06
Modify  | 7.5589     | 7.6153     | 7.6717     |   2.0 |  2.68
Other   |            | 0.6667     |            |       |  0.23

Nlocal:    3456 ave 3525 max 3387 min
Histogram: 1 0 0 0 0 0 0 0 0 1
Nghost:    7460 ave 7541 max 7379 min
Histogram: 1 0 0 0 0 0 0 0 0 1
Neighs:    287600 ave 294658 max 280543 min
Histogram: 1 0 0 0 0 0 0 0 0 1

Total # of neighbors = 575201
Ave neighs/atom = 83.2177
Neighbor list builds = 2500
Dangerous builds not checked
unfix   intnpt
undump  id


#Using Nvt to calculate the rdf

fix         intnvt all nvt temp ${temp} ${temp} ${tdamp}
fix         intnvt all nvt temp 1 ${temp} ${tdamp}
fix         intnvt all nvt temp 1 1 ${tdamp}
fix         intnvt all nvt temp 1 1 1
compute     rdfnvt all rdf 100 1 1 1 2 2 2
fix         rdfnvt all ave/time ${Nevery} ${Nrepeat} ${Nfreq} c_rdfnvt[*] file systemnvt.rdf.${eps} mode vector ave window 2
fix         rdfnvt all ave/time 1000 ${Nrepeat} ${Nfreq} c_rdfnvt[*] file systemnvt.rdf.${eps} mode vector ave window 2
fix         rdfnvt all ave/time 1000 100 ${Nfreq} c_rdfnvt[*] file systemnvt.rdf.${eps} mode vector ave window 2
fix         rdfnvt all ave/time 1000 100 100000 c_rdfnvt[*] file systemnvt.rdf.${eps} mode vector ave window 2
fix         rdfnvt all ave/time 1000 100 100000 c_rdfnvt[*] file systemnvt.rdf.2 mode vector ave window 2
dump        idnvt all atom 1000 out.dump.nvt.${eps}.lammpstrj
dump        idnvt all atom 1000 out.dump.nvt.2.lammpstrj
thermo      ${nthermo}
thermo      1000
thermo_style custom step pe ke etotal press temp vol density
restart     100000 restartnvt1.data restartnvt2.data
run         200000
Neighbor list info ...
  update every 20 steps, delay 0 steps, check no
  max neighbors/atom: 2000, page size: 100000
  master list distance cutoff = 3.8
  ghost atom cutoff = 3.8
  binsize = 1.9, bins = 12 12 12
  2 neighbor lists, perpetual/occasional/extra = 1 1 0
  (1) pair lj/cut, perpetual
      attributes: half, newton on
      pair build: half/bin/atomonly/newton
      stencil: half/bin/3d/newton
      bin: standard
  (2) compute rdf, occasional, copy from (1)
      attributes: half, newton on
      pair build: copy
      stencil: none
      bin: none
Per MPI rank memory allocation (min/avg/max) = 4.927 | 5.118 | 5.308 Mbytes
Step PotEng KinEng TotEng Press Temp Volume Density 
   50000   -5.0016773    1.5006602   -3.5010171   0.92962899    1.0005849    9498.8263   0.72766885 
   51000   -4.9997197    1.4902822   -3.5094375   0.95849146   0.99366523    9498.8263   0.72766885 
   52000   -4.9864953    1.4724197   -3.5140756   0.92443892   0.98175519    9498.8263   0.72766885 
   53000   -5.0032671    1.4708551    -3.532412   0.92218892   0.98071194    9498.8263   0.72766885 
   54000   -4.9886044    1.4821979   -3.5064066    1.0113345   0.98827489    9498.8263   0.72766885 
   55000   -4.9864504    1.4823834    -3.504067   0.98202469   0.98839862    9498.8263   0.72766885 
   56000   -4.9895043    1.5095633   -3.4799411   0.95790218    1.0065211    9498.8263   0.72766885 
   57000   -4.9686494    1.4982774    -3.470372    1.0435873   0.99899614    9498.8263   0.72766885 
   58000   -4.9832839     1.496953    -3.486331    1.0005359   0.99811305    9498.8263   0.72766885 
   59000   -5.0195151     1.484846   -3.5346691   0.82232123    0.9900406    9498.8263   0.72766885 
   60000   -5.0032799    1.4975958   -3.5056841   0.86041405   0.99854165    9498.8263   0.72766885 
   61000   -4.9872783    1.4883956   -3.4988828    1.0119896   0.99240728    9498.8263   0.72766885 
   62000   -4.9808247    1.5018131   -3.4790116    1.0069322    1.0013536    9498.8263   0.72766885 
   63000    -4.986944    1.5119623   -3.4749817   0.96476993    1.0081207    9498.8263   0.72766885 
   64000   -4.9875868     1.484485   -3.5031018    1.0092004   0.98979987    9498.8263   0.72766885 
   65000    -5.006717     1.486785   -3.5199321   0.94750865   0.99133341    9498.8263   0.72766885 
   66000     -4.99511    1.4907345   -3.5043755   0.90378771   0.99396681    9498.8263   0.72766885 
   67000    -4.995298     1.486549    -3.508749   0.94701156   0.99117604    9498.8263   0.72766885 
   68000   -4.9943236    1.4699275    -3.524396    1.0100016   0.98009348    9498.8263   0.72766885 
   69000   -5.0122748    1.5077736   -3.5045012   0.85568245    1.0053279    9498.8263   0.72766885 
   70000   -4.9757736    1.4996371   -3.4761366    1.0113059    0.9999027    9498.8263   0.72766885 
   71000    -4.994336    1.5139022   -3.4804337   0.98327773    1.0094142    9498.8263   0.72766885 
   72000   -4.9800436    1.5114056    -3.468638   0.94598017    1.0077495    9498.8263   0.72766885 
   73000   -4.9872176    1.4980986    -3.489119   0.98542928   0.99887688    9498.8263   0.72766885 
   74000   -4.9942796    1.5106541   -3.4836254   0.96906116    1.0072485    9498.8263   0.72766885 
   75000   -4.9788805    1.5036992   -3.4751812    1.0293372    1.0026112    9498.8263   0.72766885 
   76000   -4.9841992    1.5175069   -3.4666922    1.0236905    1.0118177    9498.8263   0.72766885 
   77000   -4.9818539    1.5069036   -3.4749503    1.0420339    1.0047477    9498.8263   0.72766885 
   78000   -5.0065215    1.5107575   -3.4957641   0.89008913    1.0073174    9498.8263   0.72766885 
   79000   -4.9703514    1.4691954    -3.501156    1.0409168   0.97960533    9498.8263   0.72766885 
   80000   -4.9839022    1.4780006   -3.5059016   0.98663322   0.98547632    9498.8263   0.72766885 
   81000   -4.9974883    1.5035195   -3.4939689   0.92218871    1.0024914    9498.8263   0.72766885 
   82000   -4.9614404    1.4960696   -3.4653708    1.0719429   0.99752408    9498.8263   0.72766885 
   83000   -4.9843217    1.5019196    -3.482402   0.96022828    1.0014246    9498.8263   0.72766885 
   84000   -4.9936789    1.4811442   -3.5125348   0.98037395   0.98757232    9498.8263   0.72766885 
   85000   -4.9818792     1.479249   -3.5026302    0.9728458   0.98630869    9498.8263   0.72766885 
   86000    -4.984853    1.4703881   -3.5144649   0.94591092    0.9804006    9498.8263   0.72766885 
   87000   -4.9881192    1.4594476   -3.5286716   0.95197022   0.97310584    9498.8263   0.72766885 
   88000   -5.0064931    1.5149745   -3.4915186   0.88931918    1.0101291    9498.8263   0.72766885 
   89000   -4.9854751     1.500178   -3.4852971   0.98171755    1.0002634    9498.8263   0.72766885 
   90000   -4.9886818    1.4920714   -3.4966104     1.001113    0.9948582    9498.8263   0.72766885 
   91000   -4.9891699    1.4901442   -3.4990257   0.98431727   0.99357323    9498.8263   0.72766885 
   92000    -4.976154    1.4885485   -3.4876055    1.0224118   0.99250928    9498.8263   0.72766885 
   93000   -4.9824324    1.5085063   -3.4739261   0.95813724    1.0058164    9498.8263   0.72766885 
   94000   -4.9813888    1.5051681   -3.4762207    1.0338705    1.0035906    9498.8263   0.72766885 
   95000   -4.9879457    1.5070505   -3.4808951    1.0672599    1.0048457    9498.8263   0.72766885 
   96000   -5.0036161    1.5055248   -3.4980913   0.90548489    1.0038285    9498.8263   0.72766885 
   97000   -4.9990523    1.4890755   -3.5099768   0.97024941   0.99286066    9498.8263   0.72766885 
   98000   -4.9976366    1.4702508   -3.5273857   0.89870534   0.98030904    9498.8263   0.72766885 
   99000   -4.9852942      1.46825   -3.5170442   0.96406972   0.97897498    9498.8263   0.72766885 
  100000   -4.9910712    1.4952859   -3.4957853    0.9467086   0.99700154    9498.8263   0.72766885 
  101000   -4.9941682    1.5066978   -3.4874703   0.96064554    1.0046106    9498.8263   0.72766885 
  102000   -4.9865684    1.5087342   -3.4778342   0.99701608    1.0059683    9498.8263   0.72766885 
  103000   -4.9857395    1.5065033   -3.4792361     1.012544    1.0044809    9498.8263   0.72766885 
  104000   -4.9594195    1.5146542   -3.4447653    1.0925678    1.0099156    9498.8263   0.72766885 
  105000   -4.9981937    1.5322778   -3.4659158   0.98844425    1.0216664    9498.8263   0.72766885 
  106000   -4.9807303    1.5044178   -3.4763125   0.99396251    1.0030903    9498.8263   0.72766885 
  107000   -5.0031563    1.5251799   -3.4779764   0.92728781    1.0169337    9498.8263   0.72766885 
  108000   -4.9902632    1.5200381   -3.4702251   0.95059634    1.0135053    9498.8263   0.72766885 
  109000    -4.984888    1.5034109   -3.4814771    1.0064204    1.0024189    9498.8263   0.72766885 
  110000   -4.9847709    1.4937139    -3.491057   0.95313488   0.99595334    9498.8263   0.72766885 
  111000   -4.9795655    1.4823801   -3.4971854    1.0125134   0.98839641    9498.8263   0.72766885 
  112000   -4.9871264    1.4734165     -3.51371   0.98279229   0.98241977    9498.8263   0.72766885 
  113000   -4.9954858    1.5137127   -3.4817732   0.93047671    1.0092878    9498.8263   0.72766885 
  114000   -4.9924356    1.5164794   -3.4759562   0.96252678    1.0111326    9498.8263   0.72766885 
  115000    -4.979978    1.4875116   -3.4924663    1.0799693   0.99181792    9498.8263   0.72766885 
  116000   -4.9980737     1.466866   -3.5312077   0.90924517   0.97805219    9498.8263   0.72766885 
  117000   -4.9946441    1.4727977   -3.5218465   0.96048605   0.98200718    9498.8263   0.72766885 
  118000   -4.9879356    1.4794179   -3.5085177   0.97187007   0.98642131    9498.8263   0.72766885 
  119000   -5.0013509    1.4989491   -3.5024018   0.91025953   0.99944397    9498.8263   0.72766885 
  120000   -4.9890767    1.4957178   -3.4933589   0.98945445   0.99728946    9498.8263   0.72766885 
  121000   -4.9886032    1.4825895   -3.5060137   0.97331304   0.98853602    9498.8263   0.72766885 
  122000   -4.9967013    1.4943788   -3.5023225    0.9391129   0.99639669    9498.8263   0.72766885 
  123000   -4.9892778    1.4853096   -3.5039682    0.9384571   0.99034971    9498.8263   0.72766885 
  124000   -4.9797542    1.4680068   -3.5117474   0.91665734   0.97881283    9498.8263   0.72766885 
  125000   -4.9982736    1.4747479   -3.5235257   0.96054859   0.98330755    9498.8263   0.72766885 
  126000   -4.9982267    1.4752935   -3.5229332   0.94051196   0.98367132    9498.8263   0.72766885 
  127000   -4.9891008    1.4934771   -3.4956237   0.97087213    0.9957955    9498.8263   0.72766885 
  128000   -4.9943683    1.5117019   -3.4826664   0.95277924    1.0079471    9498.8263   0.72766885 
  129000   -4.9842805     1.510209   -3.4740715   0.97130092    1.0069517    9498.8263   0.72766885 
  130000   -4.9715708    1.5019533   -3.4696174    1.0304358    1.0014471    9498.8263   0.72766885 
  131000   -4.9976993    1.5286086   -3.4690907    0.9323169    1.0192199    9498.8263   0.72766885 
  132000    -4.978539    1.5017603   -3.4767786   0.99430418    1.0013184    9498.8263   0.72766885 
  133000   -5.0017145    1.4850266   -3.5166879   0.91554239   0.99016097    9498.8263   0.72766885 
  134000   -4.9961615    1.4778741   -3.5182874     1.022081   0.98539195    9498.8263   0.72766885 
  135000   -4.9924818    1.4906031   -3.5018787    0.9012822   0.99387917    9498.8263   0.72766885 
  136000   -4.9654514    1.4706232   -3.4948282    1.0879147   0.98055733    9498.8263   0.72766885 
  137000   -4.9962989    1.4882375   -3.5080614   0.96818489   0.99230188    9498.8263   0.72766885 
  138000   -4.9999757    1.5080164   -3.4919593   0.91169793    1.0054897    9498.8263   0.72766885 
  139000   -4.9791569    1.5009295   -3.4782274     1.082938    1.0007644    9498.8263   0.72766885 
  140000   -4.9834678     1.495057   -3.4884108    1.0269429   0.99684888    9498.8263   0.72766885 
  141000   -4.9845184    1.5053151   -3.4792033   0.97923601    1.0036886    9498.8263   0.72766885 
  142000    -4.981361    1.5062563   -3.4751047    1.0489651    1.0043162    9498.8263   0.72766885 
  143000   -4.9698571    1.5002856   -3.4695715    1.0669982    1.0003351    9498.8263   0.72766885 
  144000   -5.0023334    1.5276242   -3.4747092   0.89598849    1.0185635    9498.8263   0.72766885 
  145000   -4.9944457    1.5077775   -3.4866682   0.93620295    1.0053305    9498.8263   0.72766885 
  146000   -4.9852897    1.4857695   -3.4995202   0.89852365   0.99065633    9498.8263   0.72766885 
  147000   -5.0012788    1.4898082   -3.5114706   0.85812852    0.9933492    9498.8263   0.72766885 
  148000   -4.9852583    1.4854262   -3.4998321    1.0163289   0.99042745    9498.8263   0.72766885 
  149000   -4.9884554     1.469002   -3.5194535   0.97275251   0.97947635    9498.8263   0.72766885 
  150000   -4.9835822     1.480396   -3.5031862    0.9117345   0.98707348    9498.8263   0.72766885 
  151000   -5.0024218    1.4980978   -3.5043239    0.9319076   0.99887641    9498.8263   0.72766885 
  152000   -4.9874887    1.4701365   -3.5173522   0.98930558   0.98023282    9498.8263   0.72766885 
  153000   -4.9947049    1.4750154   -3.5196895   0.93305427   0.98348591    9498.8263   0.72766885 
  154000   -4.9901771    1.4825592   -3.5076179   0.95066631   0.98851582    9498.8263   0.72766885 
  155000   -4.9870217    1.4951211   -3.4919006   0.94899482   0.99689163    9498.8263   0.72766885 
  156000   -5.0005448     1.512674   -3.4878708   0.95757384    1.0085953    9498.8263   0.72766885 
  157000   -4.9988071    1.4826798   -3.5161274   0.96415755    0.9885962    9498.8263   0.72766885 
  158000   -4.9889865    1.4903665     -3.49862    1.0151115   0.99372141    9498.8263   0.72766885 
  159000   -5.0096016    1.4940531   -3.5155485   0.95169646   0.99617952    9498.8263   0.72766885 
  160000   -4.9952122    1.5024363   -3.4927759   0.93970724    1.0017691    9498.8263   0.72766885 
  161000   -4.9864397    1.4849887    -3.501451    1.0261912   0.99013572    9498.8263   0.72766885 
  162000   -4.9842065    1.5048585    -3.479348    1.0149224    1.0033842    9498.8263   0.72766885 
  163000   -4.9772771    1.5021375   -3.4751396    1.0283538    1.0015699    9498.8263   0.72766885 
  164000   -5.0013155    1.5084253   -3.4928902    0.9552235    1.0057624    9498.8263   0.72766885 
  165000   -4.9852657     1.482986   -3.5022797   0.94643351   0.98880042    9498.8263   0.72766885 
  166000   -4.9904675    1.4898359   -3.5006316   0.98784413   0.99336765    9498.8263   0.72766885 
  167000   -4.9893243    1.4837166   -3.5056078   0.94951988    0.9892875    9498.8263   0.72766885 
  168000   -4.9912466     1.479574   -3.5116725   0.96440849   0.98652542    9498.8263   0.72766885 
  169000   -5.0042038    1.4854206   -3.5187833   0.92360428   0.99042366    9498.8263   0.72766885 
  170000   -5.0021449    1.4850901   -3.5170548   0.92198439   0.99020331    9498.8263   0.72766885 
  171000   -4.9852748    1.4859097    -3.499365   0.96482513   0.99074981    9498.8263   0.72766885 
  172000   -4.9939189    1.4960893   -3.4978296   0.97725648   0.99753721    9498.8263   0.72766885 
  173000   -4.9810848    1.5049058    -3.476179   0.96973714    1.0034157    9498.8263   0.72766885 
  174000   -4.9884828    1.5135153   -3.4749675   0.92339302    1.0091562    9498.8263   0.72766885 
  175000   -4.9879111    1.5036444   -3.4842667    1.0197575    1.0025746    9498.8263   0.72766885 
  176000   -4.9890471    1.5045848   -3.4844623    1.0135298    1.0032017    9498.8263   0.72766885 
  177000   -4.9962912    1.5207098   -3.4755814   0.94054115    1.0139532    9498.8263   0.72766885 
  178000   -4.9895663    1.5297596   -3.4598067   0.99526613    1.0199873    9498.8263   0.72766885 
  179000   -4.9774405    1.5287869   -3.4486536    1.0421007    1.0193387    9498.8263   0.72766885 
  180000   -4.9853514     1.493931   -3.4914204     1.025688   0.99609812    9498.8263   0.72766885 
  181000   -4.9894042    1.4919345   -3.4974697   0.92764293   0.99476691    9498.8263   0.72766885 
  182000   -4.9968916    1.4874165   -3.5094751   0.98590625   0.99175447    9498.8263   0.72766885 
  183000   -4.9916564      1.49594   -3.4957164   0.94867562   0.99743764    9498.8263   0.72766885 
  184000   -5.0102265    1.4877717   -3.5224549   0.82694527    0.9919913    9498.8263   0.72766885 
  185000   -4.9977682    1.4933637   -3.5044045   0.97884841   0.99571987    9498.8263   0.72766885 
  186000   -4.9869353    1.5157361   -3.4711992   0.94868153    1.0106369    9498.8263   0.72766885 
  187000   -4.9966473    1.5319701   -3.4646772   0.98665125    1.0214612    9498.8263   0.72766885 
  188000   -4.9717382    1.5253786   -3.4463596    1.0776194    1.0170662    9498.8263   0.72766885 
  189000   -4.9836186    1.4950085   -3.4886101    1.0089224   0.99681652    9498.8263   0.72766885 
  190000   -4.9848723    1.4915511   -3.4933213     0.965048   0.99451127    9498.8263   0.72766885 
  191000   -4.9986464    1.4937981   -3.5048483   0.93383255   0.99600951    9498.8263   0.72766885 
  192000   -4.9992315    1.4966989   -3.5025326   0.97646569   0.99794362    9498.8263   0.72766885 
  193000   -4.9906229    1.5069005   -3.4837224   0.93712998    1.0047457    9498.8263   0.72766885 
  194000   -4.9719513    1.4962675   -3.4756839    1.0804901   0.99765597    9498.8263   0.72766885 
  195000    -4.984427    1.5111252   -3.4733019    1.0216391    1.0075625    9498.8263   0.72766885 
  196000   -4.9885076    1.5220803   -3.4664273    1.0020353     1.014867    9498.8263   0.72766885 
  197000   -4.9693339     1.523475   -3.4458589    1.0947663     1.015797    9498.8263   0.72766885 
  198000   -4.9896182    1.4920792    -3.497539   0.89463629   0.99486339    9498.8263   0.72766885 
  199000   -4.9947059    1.4831224   -3.5115835   0.89843116   0.98889135    9498.8263   0.72766885 
  200000   -4.9870378    1.4838631   -3.5031748   0.98919269   0.98938518    9498.8263   0.72766885 
  201000   -4.9812316    1.4790047   -3.5022268    1.0379514   0.98614583    9498.8263   0.72766885 
  202000   -4.9848284    1.5039092   -3.4809192   0.99911747    1.0027512    9498.8263   0.72766885 
  203000   -4.9919314    1.5103185   -3.4816128   0.88654573    1.0070247    9498.8263   0.72766885 
  204000   -4.9839399    1.5117267   -3.4722132   0.97762415    1.0079636    9498.8263   0.72766885 
  205000   -4.9839884    1.5132971   -3.4706913    1.0053531    1.0090107    9498.8263   0.72766885 
  206000   -4.9810374    1.5078457   -3.4731917   0.98662198    1.0053759    9498.8263   0.72766885 
  207000    -4.982627    1.4996167   -3.4830103   0.99997447   0.99988914    9498.8263   0.72766885 
  208000   -4.9932686    1.5040324   -3.4892362   0.96515529    1.0028333    9498.8263   0.72766885 
  209000   -4.9901727     1.507531   -3.4826417   0.98637371    1.0051661    9498.8263   0.72766885 
  210000   -5.0032771    1.5077336   -3.4955435    0.9242557    1.0053012    9498.8263   0.72766885 
  211000   -4.9910982    1.4941298   -3.4969684      1.00461    0.9962307    9498.8263   0.72766885 
  212000   -5.0040786    1.4990936    -3.504985   0.88659208   0.99954037    9498.8263   0.72766885 
  213000   -4.9876063    1.4917742   -3.4958321   0.95639384   0.99466007    9498.8263   0.72766885 
  214000   -4.9958025    1.4966982   -3.4991042   0.94522734    0.9979432    9498.8263   0.72766885 
  215000   -4.9692669    1.5181822   -3.4510846    1.0160796    1.0122679    9498.8263   0.72766885 
  216000   -4.9745354    1.5114334    -3.463102   0.95304915     1.007768    9498.8263   0.72766885 
  217000   -4.9645192    1.4930037   -3.4715155    1.0583931   0.99547983    9498.8263   0.72766885 
  218000   -4.9910174    1.5049131   -3.4861043    1.0643651    1.0034206    9498.8263   0.72766885 
  219000   -4.9746304    1.4851224   -3.4895081   0.98424446   0.99022483    9498.8263   0.72766885 
  220000   -4.9886649    1.5029347   -3.4857301   0.96316314    1.0021015    9498.8263   0.72766885 
  221000   -4.9793875    1.4840423   -3.4953451    1.0136105   0.98950472    9498.8263   0.72766885 
  222000   -4.9929695    1.4910469   -3.5019226   0.94920851   0.99417509    9498.8263   0.72766885 
  223000   -4.9926852    1.4775369   -3.5151483   0.91583181   0.98516713    9498.8263   0.72766885 
  224000   -5.0015819    1.4877583   -3.5138236   0.96191359   0.99198237    9498.8263   0.72766885 
  225000   -4.9942008    1.4948422   -3.4993586   0.90402769   0.99670565    9498.8263   0.72766885 
  226000    -5.000576    1.4662584   -3.5343176   0.95909578   0.97764702    9498.8263   0.72766885 
  227000   -4.9964467    1.4716531   -3.5247936   0.94106378   0.98124401    9498.8263   0.72766885 
  228000   -4.9766619    1.4715292   -3.5051327   0.99706549   0.98116143    9498.8263   0.72766885 
  229000   -5.0042066      1.49379   -3.5104167    0.8891797   0.99600407    9498.8263   0.72766885 
  230000    -4.997922    1.5128425   -3.4850795   0.97162533    1.0087076    9498.8263   0.72766885 
  231000   -4.9783615    1.5033714     -3.47499    1.0101402    1.0023926    9498.8263   0.72766885 
  232000   -4.9828369    1.4924675   -3.4903694    1.0022714   0.99512228    9498.8263   0.72766885 
  233000   -4.9888641    1.4872307   -3.5016333    0.9722044   0.99163062    9498.8263   0.72766885 
  234000   -4.9827915    1.4915205    -3.491271   0.99771606   0.99449088    9498.8263   0.72766885 
  235000   -4.9895998     1.500381   -3.4892188    1.0194821    1.0003987    9498.8263   0.72766885 
  236000   -5.0057334    1.4824933   -3.5232401   0.80564019    0.9884719    9498.8263   0.72766885 
  237000   -5.0152749    1.4937339    -3.521541   0.83685964   0.99596669    9498.8263   0.72766885 
  238000   -4.9940823    1.4999764   -3.4941059    0.9879469    1.0001289    9498.8263   0.72766885 
  239000   -5.0014731    1.5135302   -3.4879429   0.91925815    1.0091661    9498.8263   0.72766885 
  240000   -4.9844364    1.5082591   -3.4761774   0.97536077    1.0056515    9498.8263   0.72766885 
  241000   -4.9767953    1.5179193    -3.458876    1.0419072    1.0120926    9498.8263   0.72766885 
  242000   -4.9860382    1.5155099   -3.4705283    1.0614229    1.0104861    9498.8263   0.72766885 
  243000   -4.9748885    1.5011037   -3.4737849    1.0569147    1.0008806    9498.8263   0.72766885 
  244000   -4.9935223     1.520515   -3.4730073   0.93620665    1.0138233    9498.8263   0.72766885 
  245000   -4.9785388    1.5117652   -3.4667736    0.9914287    1.0079893    9498.8263   0.72766885 
  246000   -4.9765296    1.5245947   -3.4519349    1.0912084    1.0165436    9498.8263   0.72766885 
  247000   -4.9697287    1.4944724   -3.4752563    1.0258682   0.99645908    9498.8263   0.72766885 
  248000   -4.9888756    1.5011741   -3.4877014   0.97437975    1.0009276    9498.8263   0.72766885 
  249000   -4.9860997    1.4858634   -3.5002363   0.93611623    0.9907189    9498.8263   0.72766885 
  250000   -5.0135892    1.5026751   -3.5109141   0.90776356    1.0019283    9498.8263   0.72766885 
Loop time of 1192.83 on 2 procs for 200000 steps with 6912 atoms

Performance: 72432.660 tau/day, 167.668 timesteps/s
99.2% CPU use with 2 MPI tasks x no OpenMP threads

MPI task timing breakdown:
Section |  min time  |  avg time  |  max time  |%varavg| %total
---------------------------------------------------------------
Pair    | 1012       | 1023.8     | 1035.6     |  37.0 | 85.83
Neigh   | 108.73     | 108.99     | 109.25     |   2.5 |  9.14
Comm    | 29.044     | 40.702     | 52.36      | 182.7 |  3.41
Output  | 0.73743    | 0.73827    | 0.73911    |   0.1 |  0.06
Modify  | 15.442     | 15.522     | 15.601     |   2.0 |  1.30
Other   |            | 3.079      |            |       |  0.26

Nlocal:    3456 ave 3490 max 3422 min
Histogram: 1 0 0 0 0 0 0 0 0 1
Nghost:    7500.5 ave 7542 max 7459 min
Histogram: 1 0 0 0 0 0 0 0 0 1
Neighs:    287291 ave 294199 max 280383 min
Histogram: 1 0 0 0 0 0 0 0 0 1

Total # of neighbors = 574582
Ave neighs/atom = 83.1282
Neighbor list builds = 10000
Dangerous builds not checked
unfix       intnvt
uncompute   rdfnvt
unfix       rdfnvt
undump      idnvt

next      a
jump      in.melt epsloop
variable    a loop 10   #loop parameter defined
variable    eps equal 0.5+($a-1)*0.5
variable    eps equal 0.5+(5-1)*0.5
if "${eps} > 2" then "variable eps equal 2.0+($a-4)*2.0" #epsilon value will increase at rate of 0.5 from 0.5 till 2.0
variable eps equal 2.0+($a-4)*2.0
variable eps equal 2.0+(5-4)*2.0


#Seeting the pair coefficient for all types of interaction
pair_coeff	1 1 10.0 1.0 3.5  # epsilon sigma and rcut is defined repectively
pair_coeff	1 2 ${eps} 1.0 3.5
pair_coeff	1 2 4 1.0 3.5
pair_coeff	2 2 0.8 1.0 3.5 # Use epsilon(nanoparticle)=10.0


minimize  1.0e-4 1.0e-6 100 1000
WARNING: Using 'neigh_modify every 1 delay 0 check yes' setting during minimization (../min.cpp:190)
Neighbor list info ...
  update every 1 steps, delay 0 steps, check yes
  max neighbors/atom: 2000, page size: 100000
  master list distance cutoff = 3.8
  ghost atom cutoff = 3.8
  binsize = 1.9, bins = 12 12 12
  1 neighbor lists, perpetual/occasional/extra = 1 0 0
  (1) pair lj/cut, perpetual
      attributes: half, newton on
      pair build: half/bin/atomonly/newton
      stencil: half/bin/3d/newton
      bin: standard
Per MPI rank memory allocation (min/avg/max) = 5.418 | 5.609 | 5.799 Mbytes
Step PotEng KinEng TotEng Press Temp Volume Density 
  250000   -5.1843365    1.5026751   -3.6816615   0.85904926    1.0019283    9498.8263   0.72766885 
  250100   -6.3119278    1.5026751   -4.8092527   -1.4339351    1.0019283    9498.8263   0.72766885 
Loop time of 3.02247 on 2 procs for 100 steps with 6912 atoms

99.6% CPU use with 2 MPI tasks x no OpenMP threads

Minimization stats:
  Stopping criterion = max iterations
  Energy initial, next-to-last, final = 
        -5.18433653421     -6.30842946288     -6.31192775125
  Force two-norm initial, final = 2296.15 266.877
  Force max component initial, final = 182.807 45.7547
  Final line search alpha, max atom move = 0.00183412 0.0839198
  Iterations, force evaluations = 100 197

MPI task timing breakdown:
Section |  min time  |  avg time  |  max time  |%varavg| %total
---------------------------------------------------------------
Pair    | 2.4204     | 2.432      | 2.4436     |   0.7 | 80.46
Neigh   | 0.44306    | 0.4462     | 0.44935    |   0.5 | 14.76
Comm    | 0.095265   | 0.10374    | 0.11222    |   2.6 |  3.43
Output  | 6.9018e-05 | 7.716e-05  | 8.5303e-05 |   0.0 |  0.00
Modify  | 0          | 0          | 0          |   0.0 |  0.00
Other   |            | 0.04044    |            |       |  1.34

Nlocal:    3456 ave 3500 max 3412 min
Histogram: 1 0 0 0 0 0 0 0 0 1
Nghost:    7581 ave 7645 max 7517 min
Histogram: 1 0 0 0 0 0 0 0 0 1
Neighs:    288180 ave 294191 max 282170 min
Histogram: 1 0 0 0 0 0 0 0 0 1

Total # of neighbors = 576361
Ave neighs/atom = 83.3856
Neighbor list builds = 28
Dangerous builds not checked

neighbor	0.3 bin   #skin factor is taken to 0.3
neigh_modify	every 20 delay 0 check no
timestep 0.005
variable nthermo equal 1000
variable temp equal 1.0
variable tdamp equal 1.0
variable pext equal 1.0
variable pdamp equal 10.0
variable Nevery equal 1000
variable Nfreq equal 100000
variable Nrepeat equal 100
reset_timestep 0

#Using Npt to Calculate the rdf

fix 		intnpt all npt temp ${temp} ${temp} ${tdamp} iso ${pext} ${pext} ${pdamp}
fix 		intnpt all npt temp 1 ${temp} ${tdamp} iso ${pext} ${pext} ${pdamp}
fix 		intnpt all npt temp 1 1 ${tdamp} iso ${pext} ${pext} ${pdamp}
fix 		intnpt all npt temp 1 1 1 iso ${pext} ${pext} ${pdamp}
fix 		intnpt all npt temp 1 1 1 iso 1 ${pext} ${pdamp}
fix 		intnpt all npt temp 1 1 1 iso 1 1 ${pdamp}
fix 		intnpt all npt temp 1 1 1 iso 1 1 10
dump		id all atom 1000 out.dump.npt.${eps}.lammpstrj
dump		id all atom 1000 out.dump.npt.4.lammpstrj
thermo		${nthermo}
thermo		1000
thermo_style custom step pe ke etotal press temp vol density
restart 25000 restartnpt1.data restartnpt2.data
run		  50000
Per MPI rank memory allocation (min/avg/max) = 4.927 | 5.118 | 5.308 Mbytes
Step PotEng KinEng TotEng Press Temp Volume Density 
       0   -6.3119278    1.5026751   -4.8092527   -1.4339351    1.0019283    9498.8263   0.72766885 
    1000   -5.4956686    1.4732825    -4.022386    1.4837034   0.98233048    8804.0364   0.78509444 
    2000   -5.2776089    1.5076611   -3.7699477    1.0366794    1.0052529    9318.8658   0.74172117 
    3000   -5.2471555     1.517083   -3.7300724   0.93284877     1.011535    9428.1948    0.7331202 
    4000   -5.2122151    1.4899285   -3.7222866    1.0611702   0.99342938    9431.1701   0.73288892 
    5000   -5.2370328    1.5061921   -3.7308407   0.98286109    1.0042734    9418.2277   0.73389604 
    6000    -5.245983    1.5075315   -3.7384515    0.9985122    1.0051664    9392.5086   0.73590564 
    7000    -5.226023    1.5002883   -3.7257347    1.0591465     1.000337    9423.8871   0.73345531 
    8000   -5.2512498     1.514974   -3.7362757    1.0009982    1.0101288    9411.4348   0.73442574 
    9000   -5.2226506    1.5025863   -3.7200643    1.0441264    1.0018691    9440.3086   0.73217946 
   10000     -5.22007    1.5004311   -3.7196389    1.0226261    1.0004321    9454.2328    0.7311011 
   11000   -5.2471837    1.4944243   -3.7527594   0.98278819   0.99642703    9385.7091   0.73643877 
   12000     -5.24231    1.5012265   -3.7410835    1.0660573    1.0009625    9377.2349   0.73710428 
   13000   -5.2395832     1.499933   -3.7396502    1.0250365       1.0001     9402.448   0.73512771 
   14000   -5.2528375    1.5041252   -3.7487123   0.91455247    1.0028952    9411.6267   0.73441077 
   15000   -5.2215873    1.4799374   -3.7416499   0.98880123   0.98676768    9435.3943    0.7325608 
   16000   -5.2659899    1.4962466   -3.7697433    1.0349255   0.99764209    9348.6593   0.73935735 
   17000   -5.2105018    1.5001287    -3.710373    1.0313329    1.0002305    9467.6059   0.73006841 
   18000   -5.2298206    1.5177303   -3.7120903    1.0549694    1.0119666    9444.8121   0.73183034 
   19000   -5.2557826    1.5120864   -3.7436963    1.0530545    1.0082035    9373.4091   0.73740513 
   20000   -5.2423761    1.5013873   -3.7409887   0.97872712    1.0010697    9411.4005   0.73442842 
   21000   -5.2288109     1.482103   -3.7467079    1.0059646   0.98821165    9443.9204   0.73189943 
   22000   -5.2562395    1.4996553   -3.7565842   0.99980921   0.99991487    9377.5266   0.73708135 
   23000   -5.2278821    1.5236478   -3.7042344   0.96855325    1.0159122     9453.679   0.73114393 
   24000   -5.2291351    1.5182974   -3.7108377    1.0245363    1.0123448    9424.3774   0.73341715 
   25000   -5.2376344    1.4976679   -3.7399665   0.97144227   0.99858972    9433.8113   0.73268373 
   26000   -5.2555678    1.4923007   -3.7632671    1.0225301    0.9950111     9375.247   0.73726057 
   27000   -5.2294639    1.5145012   -3.7149627   0.95878748    1.0098136    9456.7661   0.73090525 
   28000   -5.2516414     1.498581   -3.7530605    1.0992563   0.99919853     9364.146   0.73813458 
   29000   -5.2278272    1.4895587   -3.7382684   0.96000209   0.99318283    9451.4024   0.73132004 
   30000   -5.2350059    1.5184469    -3.716559   0.98050577    1.0124444     9425.233   0.73335057 
   31000    -5.226849    1.4658546   -3.7609944    1.1243239   0.97737781    9374.3477    0.7373313 
   32000   -5.2376159    1.5194987   -3.7181172    0.9887808    1.0131457     9425.317   0.73334404 
   33000   -5.2601917    1.5089217     -3.75127     1.014499    1.0060934     9368.123   0.73782123 
   34000   -5.2065361    1.4897053   -3.7168308   0.94944507   0.99328057    9477.2431   0.72932602 
   35000   -5.2282279    1.4939431   -3.7342848    1.0024665   0.99610619    9416.0214     0.734068 
   36000   -5.2593409    1.5082933   -3.7510476    1.0315104    1.0056743    9347.9019   0.73941726 
   37000   -5.1888467    1.5058374   -3.6830093   0.98524959    1.0040369    9486.5717   0.72860884 
   38000   -5.2300472    1.4817536   -3.7482936    1.1068199   0.98797866    9399.1564   0.73538514 
   39000   -5.2283262    1.4756466   -3.7526796    1.0075401   0.98390672    9416.9802   0.73399326 
   40000   -5.2231484    1.4824461   -3.7407023    1.0437204   0.98844038    9439.6761   0.73222852 
   41000   -5.2751447    1.5185354   -3.7566093    1.0900582    1.0125034    9316.8453   0.74188202 
   42000   -5.2094115    1.5094841   -3.6999274   0.97608433    1.0064683    9469.7735    0.7299013 
   43000   -5.2046105    1.5016225    -3.702988    1.1615087    1.0012265    9406.0729    0.7348444 
   44000   -5.2288751    1.4867748   -3.7421002    1.0484093   0.99132665    9403.8226   0.73502025 
   45000    -5.236153    1.4907549   -3.7453981     0.971201   0.99398041    9422.7676   0.73354245 
   46000   -5.2524273    1.4888359   -3.7635914   0.97434956   0.99270087    9395.5568   0.73566688 
   47000   -5.2410457    1.4918278   -3.7492179   0.97287685   0.99469575     9434.826   0.73260493 
   48000   -5.2362964    1.4881884    -3.748108   0.99356158   0.99226918    9414.0107   0.73422478 
   49000   -5.2440162    1.4950511   -3.7489652    1.0306364   0.99684493    9384.0353   0.73657012 
   50000   -5.2194602    1.4967956   -3.7226646    1.0515639   0.99800815    9427.8775   0.73314487 
Loop time of 495.157 on 2 procs for 50000 steps with 6912 atoms

Performance: 43622.571 tau/day, 100.978 timesteps/s
99.2% CPU use with 2 MPI tasks x no OpenMP threads

MPI task timing breakdown:
Section |  min time  |  avg time  |  max time  |%varavg| %total
---------------------------------------------------------------
Pair    | 403.48     | 412.82     | 422.15     |  45.9 | 83.37
Neigh   | 42.614     | 42.839     | 43.063     |   3.4 |  8.65
Comm    | 15.129     | 24.674     | 34.22      | 192.2 |  4.98
Output  | 0.28001    | 0.28039    | 0.28076    |   0.1 |  0.06
Modify  | 13.379     | 13.385     | 13.392     |   0.2 |  2.70
Other   |            | 1.163      |            |       |  0.23

Nlocal:    3456 ave 3458 max 3454 min
Histogram: 1 0 0 0 0 0 0 0 0 1
Nghost:    7512.5 ave 7534 max 7491 min
Histogram: 1 0 0 0 0 0 0 0 0 1
Neighs:    289853 ave 293077 max 286629 min
Histogram: 1 0 0 0 0 0 0 0 0 1

Total # of neighbors = 579706
Ave neighs/atom = 83.8695
Neighbor list builds = 2500
Dangerous builds not checked
unfix   intnpt
undump  id


#Using Nvt to calculate the rdf

fix         intnvt all nvt temp ${temp} ${temp} ${tdamp}
fix         intnvt all nvt temp 1 ${temp} ${tdamp}
fix         intnvt all nvt temp 1 1 ${tdamp}
fix         intnvt all nvt temp 1 1 1
compute     rdfnvt all rdf 100 1 1 1 2 2 2
fix         rdfnvt all ave/time ${Nevery} ${Nrepeat} ${Nfreq} c_rdfnvt[*] file systemnvt.rdf.${eps} mode vector ave window 2
fix         rdfnvt all ave/time 1000 ${Nrepeat} ${Nfreq} c_rdfnvt[*] file systemnvt.rdf.${eps} mode vector ave window 2
fix         rdfnvt all ave/time 1000 100 ${Nfreq} c_rdfnvt[*] file systemnvt.rdf.${eps} mode vector ave window 2
fix         rdfnvt all ave/time 1000 100 100000 c_rdfnvt[*] file systemnvt.rdf.${eps} mode vector ave window 2
fix         rdfnvt all ave/time 1000 100 100000 c_rdfnvt[*] file systemnvt.rdf.4 mode vector ave window 2
dump        idnvt all atom 1000 out.dump.nvt.${eps}.lammpstrj
dump        idnvt all atom 1000 out.dump.nvt.4.lammpstrj
thermo      ${nthermo}
thermo      1000
thermo_style custom step pe ke etotal press temp vol density
restart     100000 restartnvt1.data restartnvt2.data
run         200000
Neighbor list info ...
  update every 20 steps, delay 0 steps, check no
  max neighbors/atom: 2000, page size: 100000
  master list distance cutoff = 3.8
  ghost atom cutoff = 3.8
  binsize = 1.9, bins = 12 12 12
  2 neighbor lists, perpetual/occasional/extra = 1 1 0
  (1) pair lj/cut, perpetual
      attributes: half, newton on
      pair build: half/bin/atomonly/newton
      stencil: half/bin/3d/newton
      bin: standard
  (2) compute rdf, occasional, copy from (1)
      attributes: half, newton on
      pair build: copy
      stencil: none
      bin: none
Per MPI rank memory allocation (min/avg/max) = 4.925 | 4.925 | 4.925 Mbytes
Step PotEng KinEng TotEng Press Temp Volume Density 
   50000   -5.2194602    1.4967956   -3.7226646    1.0515639   0.99800815    9427.8775   0.73314487 
   51000   -5.2362575    1.5171819   -3.7190756    0.9352267     1.011601    9427.8775   0.73314487 
   52000   -5.2344567    1.4682761   -3.7661806   0.97387834   0.97899235    9427.8775   0.73314487 
   53000   -5.2427089    1.4671361   -3.7755728   0.94574128   0.97823223    9427.8775   0.73314487 
   54000   -5.2420281    1.4920957   -3.7499324   0.93770189   0.99487441    9427.8775   0.73314487 
   55000   -5.2348632    1.4959645   -3.7388988   0.99584335   0.99745394    9427.8775   0.73314487 
   56000   -5.2480098    1.5296731   -3.7183367   0.95835345    1.0199296    9427.8775   0.73314487 
   57000   -5.2348864    1.5025744   -3.7323119    1.0060534    1.0018612    9427.8775   0.73314487 
   58000   -5.2292996    1.4781196     -3.75118    1.0071088   0.98555564    9427.8775   0.73314487 
   59000   -5.2573695    1.5021021   -3.7552673   0.89989905    1.0015463    9427.8775   0.73314487 
   60000   -5.2358836    1.4730079   -3.7628757   0.96944333   0.98214735    9427.8775   0.73314487 
   61000   -5.2293713    1.5030658   -3.7263055    1.0704754    1.0021889    9427.8775   0.73314487 
   62000   -5.2207433    1.4948772   -3.7258661    1.0065351   0.99672901    9427.8775   0.73314487 
   63000   -5.2176713    1.5006975   -3.7169738    1.1234848    1.0006098    9427.8775   0.73314487 
   64000   -5.2450031    1.5158392    -3.729164    0.9638604    1.0107057    9427.8775   0.73314487 
   65000   -5.2216415    1.5197093   -3.7019322   0.95710095    1.0132861    9427.8775   0.73314487 
   66000   -5.2095422    1.4875706   -3.7219715    1.0867181   0.99185725    9427.8775   0.73314487 
   67000   -5.2412963    1.5156755   -3.7256208   0.95880483    1.0105966    9427.8775   0.73314487 
   68000   -5.2397158    1.5112917   -3.7284242   0.91700712    1.0076736    9427.8775   0.73314487 
   69000   -5.2179223    1.5161525   -3.7017697     1.068888    1.0109146    9427.8775   0.73314487 
   70000   -5.2216817    1.4893605   -3.7323212    1.0377558   0.99305066    9427.8775   0.73314487 
   71000   -5.2561728    1.5029522   -3.7532206   0.90112698    1.0021131    9427.8775   0.73314487 
   72000   -5.2348698    1.5013031   -3.7335668   0.92929747    1.0010135    9427.8775   0.73314487 
   73000   -5.2361527    1.4967775   -3.7393752   0.99686268   0.99799606    9427.8775   0.73314487 
   74000   -5.2198044    1.5200559   -3.6997485    1.0517114    1.0135173    9427.8775   0.73314487 
   75000   -5.2128134    1.5133758   -3.6994376    1.0757549    1.0090632    9427.8775   0.73314487 
   76000   -5.2294767    1.4991712   -3.7303055   0.98540625   0.99959209    9427.8775   0.73314487 
   77000   -5.2438219    1.4971259    -3.746696   0.92888205   0.99822833    9427.8775   0.73314487 
   78000   -5.2224511    1.4784012   -3.7440499    1.0746851   0.98574342    9427.8775   0.73314487 
   79000   -5.2346331    1.4950686   -3.7395645   0.96205367    0.9968566    9427.8775   0.73314487 
   80000   -5.2321539    1.4921757   -3.7399782   0.98229499   0.99492773    9427.8775   0.73314487 
   81000   -5.2147268    1.4967215   -3.7180053    1.0977936    0.9979587    9427.8775   0.73314487 
   82000   -5.2196162    1.4966972    -3.722919    1.0084641   0.99794251    9427.8775   0.73314487 
   83000   -5.2287729    1.5232177   -3.7055551    1.0052398    1.0156254    9427.8775   0.73314487 
   84000   -5.2260907    1.5059924   -3.7200983   0.98948991    1.0041402    9427.8775   0.73314487 
   85000   -5.2174077    1.4835086   -3.7338991    1.0415715   0.98914882    9427.8775   0.73314487 
   86000   -5.2308376     1.508349   -3.7224886   0.96972419    1.0057115    9427.8775   0.73314487 
   87000   -5.2160707    1.5056855   -3.7103852    1.0616387    1.0039356    9427.8775   0.73314487 
   88000   -5.2299249    1.5329028   -3.6970222    1.0216624     1.022083    9427.8775   0.73314487 
   89000   -5.2127476    1.4795891   -3.7331584    1.0371113   0.98653547    9427.8775   0.73314487 
   90000   -5.2267142    1.4948043   -3.7319099    1.0688713   0.99668041    9427.8775   0.73314487 
   91000   -5.2452833    1.5094926   -3.7357908   0.94304969     1.006474    9427.8775   0.73314487 
   92000   -5.2215498    1.4836119   -3.7379379    1.0724251   0.98921773    9427.8775   0.73314487 
   93000    -5.231054    1.4772546   -3.7537994    1.0068459   0.98497887    9427.8775   0.73314487 
   94000   -5.2318694    1.4913686   -3.7405008   0.99923715   0.99438958    9427.8775   0.73314487 
   95000   -5.2196198    1.4974707   -3.7221491    1.0146343   0.99845826    9427.8775   0.73314487 
   96000    -5.228917     1.500406    -3.728511    1.0339966    1.0004154    9427.8775   0.73314487 
   97000   -5.2083421    1.4879426   -3.7203995    1.1058702   0.99210528    9427.8775   0.73314487 
   98000   -5.2410689    1.5412534   -3.6998155   0.98030808     1.027651    9427.8775   0.73314487 
   99000   -5.2269796    1.5095979   -3.7173816    1.0199829    1.0065443    9427.8775   0.73314487 
  100000   -5.2252346    1.5115593   -3.7136754    1.0185047     1.007852    9427.8775   0.73314487 
  101000   -5.2321891     1.460642   -3.7715471   0.96855786   0.97390227    9427.8775   0.73314487 
  102000   -5.2305739    1.4695076   -3.7610662   0.98223709   0.97981349    9427.8775   0.73314487 
  103000   -5.2394612    1.4980661   -3.7413951   0.96754014   0.99885523    9427.8775   0.73314487 
  104000   -5.2243966    1.4876641   -3.7367325    1.0750754    0.9919196    9427.8775   0.73314487 
  105000   -5.2430509    1.4947606   -3.7482903   0.94690921   0.99665123    9427.8775   0.73314487 
  106000   -5.2379584    1.5013169   -3.7366415    0.9713196    1.0010227    9427.8775   0.73314487 
  107000   -5.2330491    1.4969925   -3.7360566   0.97966639   0.99813942    9427.8775   0.73314487 
  108000   -5.2410086    1.4918215    -3.749187   0.94550388    0.9946916    9427.8775   0.73314487 
  109000   -5.2534942    1.4950766   -3.7584176    0.8409924   0.99686197    9427.8775   0.73314487 
  110000   -5.2357238    1.4765942   -3.7591297   0.96329928   0.98453857    9427.8775   0.73314487 
  111000   -5.2298025    1.5113246   -3.7184779    1.0084295    1.0076955    9427.8775   0.73314487 
  112000   -5.2381315    1.5171741   -3.7209574   0.96451839    1.0115958    9427.8775   0.73314487 
  113000   -5.2168074    1.5125062   -3.7043012    1.0571393    1.0084834    9427.8775   0.73314487 
  114000   -5.2302181    1.5371669   -3.6930511   0.98246477    1.0249262    9427.8775   0.73314487 
  115000   -5.2231437    1.5115872   -3.7115566    1.0647895    1.0078706    9427.8775   0.73314487 
  116000   -5.2136344    1.5007349   -3.7128995    1.0782988    1.0006347    9427.8775   0.73314487 
  117000   -5.2328089     1.510865   -3.7219438   0.98360254    1.0073891    9427.8775   0.73314487 
  118000    -5.234877    1.5115222   -3.7233548   0.94924683    1.0078273    9427.8775   0.73314487 
  119000   -5.2110988     1.489115   -3.7219838    1.0963454   0.99288698    9427.8775   0.73314487 
  120000   -5.2191205    1.5229528   -3.6961677    1.0171207    1.0154488    9427.8775   0.73314487 
  121000   -5.2263509    1.5018383   -3.7245127    1.0815182    1.0013704    9427.8775   0.73314487 
  122000      -5.2116    1.4893846   -3.7222153    1.1170165   0.99306676    9427.8775   0.73314487 
  123000   -5.2225187    1.5003909   -3.7221278    1.0186174    1.0004053    9427.8775   0.73314487 
  124000   -5.2335383    1.5095148   -3.7240235   0.96282497    1.0064888    9427.8775   0.73314487 
  125000   -5.2197878    1.5148228    -3.704965     1.086434     1.010028    9427.8775   0.73314487 
  126000   -5.2275683     1.510371   -3.7171973   0.99241902    1.0070597    9427.8775   0.73314487 
  127000   -5.2354414    1.5066864    -3.728755    1.0480185    1.0046029    9427.8775   0.73314487 
  128000   -5.2401404    1.5089823   -3.7311581   0.92340244    1.0061338    9427.8775   0.73314487 
  129000   -5.2196988    1.4835755   -3.7361233    1.0048718   0.98919347    9427.8775   0.73314487 
  130000   -5.2343217     1.490685   -3.7436366   0.92221758   0.99393382    9427.8775   0.73314487 
  131000   -5.2273285    1.4867722   -3.7405562   0.99653352   0.99132492    9427.8775   0.73314487 
  132000   -5.2518536    1.4948041   -3.7570495   0.90384349   0.99668027    9427.8775   0.73314487 
  133000    -5.246563    1.5136239   -3.7329391   0.96458799    1.0092286    9427.8775   0.73314487 
  134000   -5.2142717    1.4972141   -3.7170576    1.0450969   0.99828717    9427.8775   0.73314487 
  135000   -5.2238261    1.5033235   -3.7205026    1.0133629    1.0023607    9427.8775   0.73314487 
  136000   -5.2363399    1.4974727   -3.7388672   0.96934059   0.99845961    9427.8775   0.73314487 
  137000   -5.2327989    1.4863574   -3.7464415   0.98743006   0.99104834    9427.8775   0.73314487 
  138000   -5.2352854    1.5092105    -3.726075   0.96053337    1.0062859    9427.8775   0.73314487 
  139000   -5.2411452    1.5000624   -3.7410828   0.99838576    1.0001863    9427.8775   0.73314487 
  140000    -5.236423    1.4856878   -3.7507352   0.96978158   0.99060184    9427.8775   0.73314487 
  141000   -5.2327467    1.4844108   -3.7483359   0.93089078   0.98975038    9427.8775   0.73314487 
  142000   -5.2413381    1.4924701    -3.748868    1.0053601   0.99512407    9427.8775   0.73314487 
  143000   -5.2221599    1.4882705   -3.7338894     1.005735    0.9923239    9427.8775   0.73314487 
  144000   -5.2225471    1.4985979   -3.7239492    1.0081746   0.99920984    9427.8775   0.73314487 
  145000   -5.2412242    1.5094574   -3.7317668   0.99109654    1.0064505    9427.8775   0.73314487 
  146000   -5.2395719    1.5086686   -3.7309033   0.94254814    1.0059246    9427.8775   0.73314487 
  147000    -5.215188    1.4883233   -3.7268647     1.051843   0.99235911    9427.8775   0.73314487 
  148000   -5.2299552    1.5158187   -3.7141365    1.0178485     1.010692    9427.8775   0.73314487 
  149000    -5.221699    1.4916653   -3.7300337    1.0380348   0.99458745    9427.8775   0.73314487 
  150000   -5.2426565    1.5075258   -3.7351307    1.0195757    1.0051626    9427.8775   0.73314487 
  151000   -5.2217625    1.4689114   -3.7528511    1.0432504   0.97941598    9427.8775   0.73314487 
  152000   -5.2465922    1.5040124   -3.7425798   0.95204312      1.00282    9427.8775   0.73314487 
  153000    -5.228464    1.5066406   -3.7218234    1.0120456    1.0045724    9427.8775   0.73314487 
  154000   -5.2297344     1.492207   -3.7375274    1.0029896   0.99494862    9427.8775   0.73314487 
  155000   -5.2425329    1.5072782   -3.7352547    1.0137134    1.0049975    9427.8775   0.73314487 
  156000   -5.2201782    1.5058222    -3.714356    1.0718754    1.0040267    9427.8775   0.73314487 
  157000   -5.2384652    1.5079508   -3.7305144    1.0070392     1.005446    9427.8775   0.73314487 
  158000   -5.2340271    1.5169766   -3.7170505   0.97378792    1.0114641    9427.8775   0.73314487 
  159000    -5.232793    1.4947235   -3.7380696    1.0155932    0.9966265    9427.8775   0.73314487 
  160000   -5.2589773     1.511599   -3.7473783   0.87193816    1.0078785    9427.8775   0.73314487 
  161000   -5.2350328    1.5116637   -3.7233691      1.00694    1.0079216    9427.8775   0.73314487 
  162000   -5.2285992    1.4989629   -3.7296363   0.99380349   0.99945322    9427.8775   0.73314487 
  163000    -5.253515    1.5015049     -3.75201   0.96721832    1.0011481    9427.8775   0.73314487 
  164000   -5.2358652    1.5021302    -3.733735   0.97819084     1.001565    9427.8775   0.73314487 
  165000   -5.2203897    1.5055629   -3.7148268    1.0686246    1.0038538    9427.8775   0.73314487 
  166000   -5.2345076    1.5276391   -3.7068685   0.96611965    1.0185734    9427.8775   0.73314487 
  167000   -5.2405901    1.5050268   -3.7355633    1.0146407    1.0034964    9427.8775   0.73314487 
  168000   -5.2379292    1.4979043   -3.7400249   0.94041025   0.99874737    9427.8775   0.73314487 
  169000   -5.2206049     1.482118   -3.7384869     1.040608   0.98822166    9427.8775   0.73314487 
  170000   -5.2485938    1.4878106   -3.7607832   0.97041123   0.99201725    9427.8775   0.73314487 
  171000   -5.2379767    1.5019634   -3.7360133   0.96295373    1.0014538    9427.8775   0.73314487 
  172000   -5.2251043    1.4953563   -3.7297479   0.99415963   0.99704846    9427.8775   0.73314487 
  173000     -5.24119    1.5007392   -3.7404508    1.0047556    1.0006376    9427.8775   0.73314487 
  174000   -5.2345734    1.4816868   -3.7528866    1.0236919   0.98793415    9427.8775   0.73314487 
  175000   -5.2411009    1.4817689    -3.759332   0.90825884   0.98798884    9427.8775   0.73314487 
  176000   -5.2355888    1.4596262   -3.7759626   0.97588312   0.97322491    9427.8775   0.73314487 
  177000   -5.2225334    1.4802608   -3.7422725   0.96835874   0.98698334    9427.8775   0.73314487 
  178000   -5.2425666    1.4969545    -3.745612    1.0052296   0.99811409    9427.8775   0.73314487 
  179000   -5.2432474    1.4967607   -3.7464867   0.96281375   0.99798484    9427.8775   0.73314487 
  180000   -5.2402363    1.5047728   -3.7354635   0.91740058     1.003327    9427.8775   0.73314487 
  181000   -5.2380921    1.5119976   -3.7260945   0.96195804    1.0081443    9427.8775   0.73314487 
  182000    -5.237549    1.5150873   -3.7224617    1.0003853    1.0102043    9427.8775   0.73314487 
  183000   -5.2182663    1.5122566   -3.7060097    1.0862084     1.008317    9427.8775   0.73314487 
  184000    -5.230118    1.5069539   -3.7231641    1.0068333    1.0047813    9427.8775   0.73314487 
  185000   -5.2308217    1.5113055   -3.7195162   0.98494869    1.0076828    9427.8775   0.73314487 
  186000    -5.201212    1.4759544   -3.7252575     1.105132     0.984112    9427.8775   0.73314487 
  187000   -5.2322573    1.4943012   -3.7379562     1.028643   0.99634492    9427.8775   0.73314487 
  188000    -5.239037    1.4996984   -3.7393387   0.98928045   0.99994358    9427.8775   0.73314487 
  189000   -5.2436823    1.4867285   -3.7569538    0.9522857   0.99129574    9427.8775   0.73314487 
  190000   -5.2549581    1.4935988   -3.7613593   0.95704856   0.99587661    9427.8775   0.73314487 
  191000   -5.2312661    1.4798122   -3.7514539   0.99705727   0.98668419    9427.8775   0.73314487 
  192000   -5.2481266    1.5048776    -3.743249   0.92208489    1.0033969    9427.8775   0.73314487 
  193000   -5.2367569    1.4910718   -3.7456851   0.96554829   0.99419171    9427.8775   0.73314487 
  194000   -5.2398781    1.4811912   -3.7586869   0.90899924   0.98760367    9427.8775   0.73314487 
  195000   -5.2427262    1.4891053    -3.753621   0.97286207    0.9928805    9427.8775   0.73314487 
  196000   -5.2255673    1.4807477   -3.7448196   0.96369701   0.98730794    9427.8775   0.73314487 
  197000   -5.2360148    1.5099808    -3.726034   0.96534058    1.0067995    9427.8775   0.73314487 
  198000   -5.2275864    1.5025201   -3.7250663    1.0588849     1.001825    9427.8775   0.73314487 
  199000   -5.2215578    1.4930892   -3.7284685    1.0502977   0.99553686    9427.8775   0.73314487 
  200000   -5.2319753    1.5017277   -3.7302476   0.95457549    1.0012966    9427.8775   0.73314487 
  201000   -5.2235636    1.4842518   -3.7393119   0.96063602   0.98964435    9427.8775   0.73314487 
  202000   -5.2399547    1.4981438   -3.7418109   0.92380734   0.99890707    9427.8775   0.73314487 
  203000   -5.2308269    1.4760806   -3.7547463   0.97853875   0.98419613    9427.8775   0.73314487 
  204000   -5.2463246    1.4972661   -3.7490585   0.96758291   0.99832185    9427.8775   0.73314487 
  205000   -5.2269347    1.4884608   -3.7384739     1.036765   0.99245078    9427.8775   0.73314487 
  206000   -5.2346751    1.4933534   -3.7413217    1.0067431   0.99571302    9427.8775   0.73314487 
  207000   -5.2343833    1.4859239   -3.7484594   0.95253455   0.99075927    9427.8775   0.73314487 
  208000   -5.2266212    1.4883997   -3.7382215    1.0376308   0.99241007    9427.8775   0.73314487 
  209000    -5.242107    1.5066719   -3.7354351   0.90066534    1.0045933    9427.8775   0.73314487 
  210000   -5.2308405    1.5108585   -3.7199819   0.95401886    1.0073848    9427.8775   0.73314487 
  211000   -5.2293897    1.5214072   -3.7079825   0.97959165    1.0144182    9427.8775   0.73314487 
  212000   -5.2231066    1.4945178   -3.7285888    1.0381066   0.99648937    9427.8775   0.73314487 
  213000   -5.2311457    1.5115728   -3.7195729   0.94573668     1.007861    9427.8775   0.73314487 
  214000   -5.2052984     1.503155   -3.7021435    1.1146191    1.0022483    9427.8775   0.73314487 
  215000   -5.2364354    1.5329105   -3.7035249   0.94148489    1.0220882    9427.8775   0.73314487 
  216000   -5.2184963    1.4917793    -3.726717    1.0440906   0.99466342    9427.8775   0.73314487 
  217000   -5.2197912    1.4919214   -3.7278699     1.100423   0.99475816    9427.8775   0.73314487 
  218000   -5.2355474     1.492842   -3.7427054    1.0494821   0.99537201    9427.8775   0.73314487 
  219000   -5.2202776    1.4675267   -3.7527509    1.0724729    0.9784927    9427.8775   0.73314487 
  220000   -5.2416968     1.491969   -3.7497277   0.94029343   0.99478994    9427.8775   0.73314487 
  221000   -5.2257712    1.4943033   -3.7314679    1.0525901   0.99634635    9427.8775   0.73314487 
  222000   -5.2272866    1.4908878   -3.7363988    1.0008383   0.99406901    9427.8775   0.73314487 
  223000   -5.2371093    1.4951005   -3.7420088   0.94250112   0.99687789    9427.8775   0.73314487 
  224000   -5.2463042     1.486783   -3.7595212   0.97588082   0.99133207    9427.8775   0.73314487 
  225000   -5.2367555    1.4862158   -3.7505397   0.97217721   0.99095388    9427.8775   0.73314487 
  226000   -5.2321672    1.4792704   -3.7528968    1.0116958   0.98632294    9427.8775   0.73314487 
  227000   -5.2301574    1.4498669   -3.7802906   0.94820909   0.96671778    9427.8775   0.73314487 
  228000   -5.2352794    1.4985963   -3.7366831    0.9735552   0.99920876    9427.8775   0.73314487 
  229000   -5.2460913    1.5034266   -3.7426647   0.93842225    1.0024294    9427.8775   0.73314487 
  230000   -5.2479459    1.5132161   -3.7347298   0.96418302    1.0089567    9427.8775   0.73314487 
  231000     -5.23841    1.4972722   -3.7411378   0.93922951   0.99832592    9427.8775   0.73314487 
  232000   -5.2499261    1.4941602   -3.7557659   0.96473058   0.99625095    9427.8775   0.73314487 
  233000   -5.2461845    1.4957663   -3.7504182   0.92244754   0.99732182    9427.8775   0.73314487 
  234000   -5.2392537    1.4880022   -3.7512514   0.97949024   0.99214504    9427.8775   0.73314487 
  235000   -5.2328731    1.4739624   -3.7589107   0.96949807   0.98278381    9427.8775   0.73314487 
  236000   -5.2308828    1.5048716   -3.7260113    1.0565983    1.0033929    9427.8775   0.73314487 
  237000   -5.2408004    1.5043308   -3.7364695    1.0093223    1.0030323    9427.8775   0.73314487 
  238000   -5.2443322    1.5150361   -3.7292961   0.92190394    1.0101702    9427.8775   0.73314487 
  239000   -5.2336221    1.5129399   -3.7206821    1.0566685    1.0087726    9427.8775   0.73314487 
  240000   -5.2454278    1.5091385   -3.7362894   0.93346215    1.0062379    9427.8775   0.73314487 
  241000   -5.2330473    1.4866947   -3.7463526   0.96708516   0.99127323    9427.8775   0.73314487 
  242000   -5.2378032    1.4796491   -3.7581541    1.0169834   0.98657549    9427.8775   0.73314487 
  243000   -5.2364912    1.4830979   -3.7533934   0.93637165   0.98887497    9427.8775   0.73314487 
  244000    -5.251122    1.4999056   -3.7512163    0.9496936    1.0000818    9427.8775   0.73314487 
  245000   -5.2215937    1.4872547    -3.734339    1.0330961   0.99164663    9427.8775   0.73314487 
  246000   -5.2273693    1.5018231   -3.7255462   0.99468978    1.0013603    9427.8775   0.73314487 
  247000   -5.2362371    1.5197828   -3.7164542    1.0074858    1.0133352    9427.8775   0.73314487 
  248000   -5.2250003    1.5139459   -3.7110544   0.99269713    1.0094433    9427.8775   0.73314487 
  249000   -5.1993436    1.5017206   -3.6976231    1.0541802    1.0012919    9427.8775   0.73314487 
  250000   -5.2197276    1.5327591   -3.6869685    1.0752545    1.0219873    9427.8775   0.73314487 
Loop time of 1874.65 on 2 procs for 200000 steps with 6912 atoms

Performance: 46088.679 tau/day, 106.687 timesteps/s
99.0% CPU use with 2 MPI tasks x no OpenMP threads

MPI task timing breakdown:
Section |  min time  |  avg time  |  max time  |%varavg| %total
---------------------------------------------------------------
Pair    | 1546.7     | 1586.7     | 1626.7     | 100.4 | 84.64
Neigh   | 165.58     | 167.12     | 168.65     |  11.9 |  8.91
Comm    | 48.117     | 89.647     | 131.18     | 438.6 |  4.78
Output  | 1.0802     | 1.0815     | 1.0828     |   0.1 |  0.06
Modify  | 25.421     | 25.498     | 25.574     |   1.5 |  1.36
Other   |            | 4.62       |            |       |  0.25

Nlocal:    3456 ave 3473 max 3439 min
Histogram: 1 0 0 0 0 0 0 0 0 1
Nghost:    7525.5 ave 7536 max 7515 min
Histogram: 1 0 0 0 0 0 0 0 0 1
Neighs:    290028 ave 295467 max 284588 min
Histogram: 1 0 0 0 0 0 0 0 0 1

Total # of neighbors = 580055
Ave neighs/atom = 83.92
Neighbor list builds = 10000
Dangerous builds not checked
unfix       intnvt
uncompute   rdfnvt
unfix       rdfnvt
undump      idnvt

next      a
jump      in.melt epsloop
variable    a loop 10   #loop parameter defined
variable    eps equal 0.5+($a-1)*0.5
variable    eps equal 0.5+(6-1)*0.5
if "${eps} > 2" then "variable eps equal 2.0+($a-4)*2.0" #epsilon value will increase at rate of 0.5 from 0.5 till 2.0
variable eps equal 2.0+($a-4)*2.0
variable eps equal 2.0+(6-4)*2.0


#Seeting the pair coefficient for all types of interaction
pair_coeff	1 1 10.0 1.0 3.5  # epsilon sigma and rcut is defined repectively
pair_coeff	1 2 ${eps} 1.0 3.5
pair_coeff	1 2 6 1.0 3.5
pair_coeff	2 2 0.8 1.0 3.5 # Use epsilon(nanoparticle)=10.0


minimize  1.0e-4 1.0e-6 100 1000
WARNING: Using 'neigh_modify every 1 delay 0 check yes' setting during minimization (../min.cpp:190)
Neighbor list info ...
  update every 1 steps, delay 0 steps, check yes
  max neighbors/atom: 2000, page size: 100000
  master list distance cutoff = 3.8
  ghost atom cutoff = 3.8
  binsize = 1.9, bins = 12 12 12
  1 neighbor lists, perpetual/occasional/extra = 1 0 0
  (1) pair lj/cut, perpetual
      attributes: half, newton on
      pair build: half/bin/atomonly/newton
      stencil: half/bin/3d/newton
      bin: standard
Per MPI rank memory allocation (min/avg/max) = 5.418 | 5.609 | 5.8 Mbytes
Step PotEng KinEng TotEng Press Temp Volume Density 
  250000   -5.4141012    1.5327591   -3.8813421    1.0158585    1.0219873    9427.8775   0.73314487 
  250100   -6.5815231    1.5327591    -5.048764   -1.4484228    1.0219873    9427.8775   0.73314487 
Loop time of 2.80347 on 2 procs for 100 steps with 6912 atoms

99.6% CPU use with 2 MPI tasks x no OpenMP threads

Minimization stats:
  Stopping criterion = max iterations
  Energy initial, next-to-last, final = 
        -5.41410118778     -6.57755058447     -6.58152313817
  Force two-norm initial, final = 2422.54 277.754
  Force max component initial, final = 172.44 42.9852
  Final line search alpha, max atom move = 0.00195156 0.0838883
  Iterations, force evaluations = 100 196

MPI task timing breakdown:
Section |  min time  |  avg time  |  max time  |%varavg| %total
---------------------------------------------------------------
Pair    | 2.2416     | 2.2942     | 2.3467     |   3.5 | 81.83
Neigh   | 0.378      | 0.3797     | 0.3814     |   0.3 | 13.54
Comm    | 0.042195   | 0.096314   | 0.15043    |  17.4 |  3.44
Output  | 7.0264e-05 | 7.9313e-05 | 8.8361e-05 |   0.0 |  0.00
Modify  | 0          | 0          | 0          |   0.0 |  0.00
Other   |            | 0.03323    |            |       |  1.19

Nlocal:    3456 ave 3485 max 3427 min
Histogram: 1 0 0 0 0 0 0 0 0 1
Nghost:    7476.5 ave 7506 max 7447 min
Histogram: 1 0 0 0 0 0 0 0 0 1
Neighs:    291167 ave 297841 max 284493 min
Histogram: 1 0 0 0 0 0 0 0 0 1

Total # of neighbors = 582334
Ave neighs/atom = 84.2497
Neighbor list builds = 25
Dangerous builds not checked

neighbor	0.3 bin   #skin factor is taken to 0.3
neigh_modify	every 20 delay 0 check no
timestep 0.005
variable nthermo equal 1000
variable temp equal 1.0
variable tdamp equal 1.0
variable pext equal 1.0
variable pdamp equal 10.0
variable Nevery equal 1000
variable Nfreq equal 100000
variable Nrepeat equal 100
reset_timestep 0

#Using Npt to Calculate the rdf

fix 		intnpt all npt temp ${temp} ${temp} ${tdamp} iso ${pext} ${pext} ${pdamp}
fix 		intnpt all npt temp 1 ${temp} ${tdamp} iso ${pext} ${pext} ${pdamp}
fix 		intnpt all npt temp 1 1 ${tdamp} iso ${pext} ${pext} ${pdamp}
fix 		intnpt all npt temp 1 1 1 iso ${pext} ${pext} ${pdamp}
fix 		intnpt all npt temp 1 1 1 iso 1 ${pext} ${pdamp}
fix 		intnpt all npt temp 1 1 1 iso 1 1 ${pdamp}
fix 		intnpt all npt temp 1 1 1 iso 1 1 10
dump		id all atom 1000 out.dump.npt.${eps}.lammpstrj
dump		id all atom 1000 out.dump.npt.6.lammpstrj
thermo		${nthermo}
thermo		1000
thermo_style custom step pe ke etotal press temp vol density
restart 25000 restartnpt1.data restartnpt2.data
run		  50000
Per MPI rank memory allocation (min/avg/max) = 4.926 | 5.117 | 5.308 Mbytes
Step PotEng KinEng TotEng Press Temp Volume Density 
       0   -6.5815231    1.5327591    -5.048764   -1.4484228    1.0219873    9427.8775   0.73314487 
    1000    -5.733985    1.4730156   -4.2609694    1.5581452   0.98215251    8767.8843   0.78833157 
    2000    -5.509828    1.5046486   -4.0051794    1.0919331    1.0032442    9290.8671   0.74395639 
    3000   -5.4685382    1.4987051   -3.9698331    1.0089164   0.99928131    9406.8441   0.73478416 
    4000   -5.4638378    1.4873966   -3.9764412   0.99930402   0.99174122    9407.1591   0.73475955 
    5000    -5.463531    1.4989629   -3.9645681   0.94727561    0.9994532    9399.9508     0.735323 
    6000   -5.4594456    1.4851578   -3.9742878    1.0531789   0.99024846    9390.2735    0.7360808 
    7000   -5.4593077    1.5041102   -3.9551975   0.93218549    1.0028852    9428.9121   0.73306442 
    8000   -5.4697464    1.4971636   -3.9725829    1.0308919   0.99825346     9381.733   0.73675088 
    9000   -5.4862558    1.5100328    -3.976223   0.98229466    1.0068342    9367.9425   0.73783544 
   10000   -5.4640516    1.5077692   -3.9562824     1.060421    1.0053249    9397.2035   0.73553797 
   11000   -5.4733813    1.5117611   -3.9616203    1.0754546    1.0079865    9369.8337   0.73768652 
   12000   -5.4585904    1.5045991   -3.9539914    1.0785105    1.0032112    9363.9775   0.73814786 
   13000   -5.4599753    1.5048163    -3.955159    1.0323107    1.0033561    9381.5633    0.7367642 
   14000   -5.4748097    1.5007234   -3.9740863   0.98524057     1.000627    9340.7014   0.73998726 
   15000   -5.4488311    1.4764556   -3.9723756    1.1087117   0.98444613     9374.128   0.73734859 
   16000   -5.4673579    1.4759122   -3.9914456     0.969384   0.98408387    9375.8309   0.73721466 
   17000    -5.486415    1.4967888   -3.9896262    1.0263375   0.99800358    9361.9147   0.73831051 
   18000   -5.4582058    1.4773116   -3.9808942   0.80723874   0.98501691    9426.0083   0.73329025 
   19000   -5.4769643    1.5034438   -3.9735204   0.98524323    1.0024409    9373.7686   0.73737685 
   20000     -5.48275    1.5217205   -3.9610294    1.0164594    1.0146272    9352.8312   0.73902756 
   21000   -5.4507649    1.5168048   -3.9339601   0.97971495    1.0113495    9421.7064   0.73362507 
   22000   -5.5051277    1.5151118   -3.9900159   0.99824378    1.0102207       9331.2   0.74074074 
   23000   -5.4427102    1.4719204   -3.9707898   0.88619605   0.98142227    9447.8617   0.73159411 
   24000   -5.4575947     1.485917   -3.9716777    0.9930323   0.99075467    9397.9621    0.7354786 
   25000   -5.4751905    1.4979661   -3.9772244   0.96152917   0.99878859    9391.4366   0.73598964 
   26000   -5.4591288    1.4748274   -3.9843013   0.97177149   0.98336057     9450.456   0.73139328 
   27000   -5.4749111    1.4905588   -3.9843523    1.0236356   0.99384965    9364.3496   0.73811854 
   28000   -5.4582944    1.4822146   -3.9760797    0.9269144   0.98828608     9430.474   0.73294301 
   29000   -5.4745339    1.4924488   -3.9820852   0.90640513   0.99510982    9381.8199   0.73674405 
   30000   -5.4631503    1.4875334   -3.9756169   0.94046414   0.99183241    9425.7459   0.73331067 
   31000   -5.4710564    1.4973027   -3.9737536   0.92085468   0.99834626    9378.8915   0.73697409 
   32000   -5.4576165    1.4913147   -3.9663018    0.9093372   0.99435368    9450.5067   0.73138935 
   33000   -5.4684946    1.4948826   -3.9736121    1.0070704   0.99673257    9361.1167   0.73837345 
   34000   -5.4559971    1.4880151   -3.9679819   0.91190776   0.99215362    9422.2425   0.73358332 
   35000    -5.477551     1.491214   -3.9863369   0.88855312   0.99428654    9393.8998   0.73579665 
   36000   -5.5045873    1.4956599   -4.0089274    1.0362547   0.99725087     9287.392   0.74423477 
   37000   -5.4322434    1.5028206   -3.9294228   0.85173471    1.0020253    9502.4619   0.72739044 
   38000   -5.4606478    1.4980014   -3.9626464   0.95364365   0.99881213    9366.3584   0.73796023 
   39000    -5.495762    1.5175623   -3.9781997   0.87654063    1.0118546    9364.5391    0.7381036 
   40000   -5.4425471    1.4966881   -3.9458591   0.86853729   0.99793643     9450.759   0.73136983 
   41000   -5.4874444    1.4932047   -3.9942398   0.92794445   0.99561382     9359.241   0.73852142 
   42000   -5.4592278    1.4595857    -3.999642   0.96136714   0.97319794    9408.7499   0.73463532 
   43000   -5.4696919    1.4934054   -3.9762866    1.0295164   0.99574763    9382.5526   0.73668651 
   44000   -5.4625104     1.512738   -3.9497724    1.0132889    1.0086379    9419.9678   0.73376047 
   45000   -5.4566184      1.49958   -3.9570385    1.0141296   0.99986463    9402.2743   0.73514128 
   46000   -5.4961318    1.5081004   -3.9880314   0.98947586    1.0055457    9323.8501   0.74132466 
   47000   -5.4398631    1.4967224   -3.9431407   0.90191441   0.99795932    9458.8777   0.73074208 
   48000   -5.4714619    1.5052149   -3.9662469   0.89116006    1.0036218    9419.3584   0.73380794 
   49000    -5.472006    1.4953208   -3.9766852    0.9914056   0.99702477    9407.0305    0.7347696 
   50000   -5.4752934    1.5101777   -3.9651158   0.93764448    1.0069308    9383.7105   0.73659561 
Loop time of 452.343 on 2 procs for 50000 steps with 6912 atoms

Performance: 47751.417 tau/day, 110.536 timesteps/s
99.5% CPU use with 2 MPI tasks x no OpenMP threads

MPI task timing breakdown:
Section |  min time  |  avg time  |  max time  |%varavg| %total
---------------------------------------------------------------
Pair    | 380.86     | 385.18     | 389.49     |  22.0 | 85.15
Neigh   | 40.48      | 40.66      | 40.84      |   2.8 |  8.99
Comm    | 9.3772     | 13.47      | 17.563     | 111.5 |  2.98
Output  | 0.25888    | 0.25926    | 0.25964    |   0.1 |  0.06
Modify  | 11.657     | 11.707     | 11.757     |   1.5 |  2.59
Other   |            | 1.067      |            |       |  0.24

Nlocal:    3456 ave 3466 max 3446 min
Histogram: 1 0 0 0 0 0 0 0 0 1
Nghost:    7523 ave 7533 max 7513 min
Histogram: 1 0 0 0 0 0 0 0 0 1
Neighs:    291367 ave 292061 max 290673 min
Histogram: 1 0 0 0 0 0 0 0 0 1

Total # of neighbors = 582734
Ave neighs/atom = 84.3076
Neighbor list builds = 2500
Dangerous builds not checked
unfix   intnpt
undump  id


#Using Nvt to calculate the rdf

fix         intnvt all nvt temp ${temp} ${temp} ${tdamp}
fix         intnvt all nvt temp 1 ${temp} ${tdamp}
fix         intnvt all nvt temp 1 1 ${tdamp}
fix         intnvt all nvt temp 1 1 1
compute     rdfnvt all rdf 100 1 1 1 2 2 2
fix         rdfnvt all ave/time ${Nevery} ${Nrepeat} ${Nfreq} c_rdfnvt[*] file systemnvt.rdf.${eps} mode vector ave window 2
fix         rdfnvt all ave/time 1000 ${Nrepeat} ${Nfreq} c_rdfnvt[*] file systemnvt.rdf.${eps} mode vector ave window 2
fix         rdfnvt all ave/time 1000 100 ${Nfreq} c_rdfnvt[*] file systemnvt.rdf.${eps} mode vector ave window 2
fix         rdfnvt all ave/time 1000 100 100000 c_rdfnvt[*] file systemnvt.rdf.${eps} mode vector ave window 2
fix         rdfnvt all ave/time 1000 100 100000 c_rdfnvt[*] file systemnvt.rdf.6 mode vector ave window 2
dump        idnvt all atom 1000 out.dump.nvt.${eps}.lammpstrj
dump        idnvt all atom 1000 out.dump.nvt.6.lammpstrj
thermo      ${nthermo}
thermo      1000
thermo_style custom step pe ke etotal press temp vol density
restart     100000 restartnvt1.data restartnvt2.data
run         200000
Neighbor list info ...
  update every 20 steps, delay 0 steps, check no
  max neighbors/atom: 2000, page size: 100000
  master list distance cutoff = 3.8
  ghost atom cutoff = 3.8
  binsize = 1.9, bins = 12 12 12
  2 neighbor lists, perpetual/occasional/extra = 1 1 0
  (1) pair lj/cut, perpetual
      attributes: half, newton on
      pair build: half/bin/atomonly/newton
      stencil: half/bin/3d/newton
      bin: standard
  (2) compute rdf, occasional, copy from (1)
      attributes: half, newton on
      pair build: copy
      stencil: none
      bin: none
Per MPI rank memory allocation (min/avg/max) = 4.925 | 4.925 | 4.925 Mbytes
Step PotEng KinEng TotEng Press Temp Volume Density 
   50000   -5.4752934    1.5101777   -3.9651158   0.93764448    1.0069308    9383.7105   0.73659561 
   51000   -5.4567169    1.4991177   -3.9575992    1.1258532   0.99955638    9383.7105   0.73659561 
   52000   -5.4623251    1.5151745   -3.9471506    1.0433768    1.0102625    9383.7105   0.73659561 
   53000   -5.4632438    1.5046062   -3.9586375    1.0415819     1.003216    9383.7105   0.73659561 
   54000   -5.4560352     1.505191   -3.9508443    1.1039453    1.0036058    9383.7105   0.73659561 
   55000   -5.4649486    1.5001843   -3.9647642    1.0361425    1.0002676    9383.7105   0.73659561 
   56000   -5.4683984    1.5184962   -3.9499022   0.95944311    1.0124773    9383.7105   0.73659561 
   57000    -5.450226    1.5068832   -3.9433428    1.0777229    1.0047342    9383.7105   0.73659561 
   58000   -5.4533222    1.5301149   -3.9232073     1.048767    1.0202242    9383.7105   0.73659561 
   59000    -5.450108    1.5012163   -3.9488917   0.99972339    1.0009557    9383.7105   0.73659561 
   60000   -5.4710298    1.5165226   -3.9545072   0.94736977    1.0111614    9383.7105   0.73659561 
   61000   -5.4669446    1.5077132   -3.9592314    1.0371236    1.0052876    9383.7105   0.73659561 
   62000   -5.4782148    1.5084367   -3.9697781   0.99978992      1.00577    9383.7105   0.73659561 
   63000   -5.4811927    1.5148074   -3.9663853     1.012081    1.0100177    9383.7105   0.73659561 
   64000   -5.4819966    1.4676918   -4.0143048   0.95354452   0.97860275    9383.7105   0.73659561 
   65000    -5.475373     1.498469    -3.976904   0.98753427   0.99912385    9383.7105   0.73659561 
   66000   -5.4781912    1.5041179   -3.9740733   0.98451902    1.0028903    9383.7105   0.73659561 
   67000    -5.468316    1.5108835   -3.9574325    1.0374272    1.0074014    9383.7105   0.73659561 
   68000   -5.4640937    1.5086258   -3.9554679    1.0418885    1.0058961    9383.7105   0.73659561 
   69000   -5.4659798    1.5171793   -3.9488005    1.0065986    1.0115992    9383.7105   0.73659561 
   70000   -5.4621056    1.5059685   -3.9561371     1.011144    1.0041242    9383.7105   0.73659561 
   71000   -5.4668484    1.4989418   -3.9679066    0.9583359   0.99943912    9383.7105   0.73659561 
   72000   -5.4692941    1.5106355   -3.9586586   0.93720907    1.0072361    9383.7105   0.73659561 
   73000   -5.4633949    1.5271578   -3.9362371    1.0509528    1.0182525    9383.7105   0.73659561 
   74000    -5.452305    1.5146004   -3.9377046    1.0296232    1.0098797    9383.7105   0.73659561 
   75000   -5.4398452    1.4902198   -3.9496253    1.1079443   0.99362364    9383.7105   0.73659561 
   76000   -5.4748765    1.5041009   -3.9707755   0.96942966    1.0028791    9383.7105   0.73659561 
   77000   -5.4629911    1.4873075   -3.9756836    1.0619403   0.99168184    9383.7105   0.73659561 
   78000   -5.4699113    1.4989572   -3.9709541    1.0183009   0.99944938    9383.7105   0.73659561 
   79000   -5.4856755    1.4876741   -3.9980014   0.94585794   0.99192626    9383.7105   0.73659561 
   80000   -5.4737181    1.4743057   -3.9994124    1.0065242   0.98301268    9383.7105   0.73659561 
   81000   -5.4776883    1.5058132   -3.9718751   0.98412247    1.0040208    9383.7105   0.73659561 
   82000   -5.4707494    1.5063948   -3.9643547   0.99509841    1.0044085    9383.7105   0.73659561 
   83000   -5.4707201    1.5037792   -3.9669409   0.91648204    1.0026646    9383.7105   0.73659561 
   84000   -5.4673559     1.521833   -3.9455229    1.0188894    1.0147022    9383.7105   0.73659561 
   85000   -5.4731186    1.5135502   -3.9595684    1.0682737    1.0091794    9383.7105   0.73659561 
   86000   -5.4707433    1.5087258   -3.9620176     1.008581    1.0059627    9383.7105   0.73659561 
   87000   -5.4646043    1.5073395   -3.9572648   0.96248736    1.0050384    9383.7105   0.73659561 
   88000   -5.4592443    1.4962355   -3.9630088    1.1293095   0.99763467    9383.7105   0.73659561 
   89000   -5.4699271    1.4922721    -3.977655   0.99837693     0.994992    9383.7105   0.73659561 
   90000   -5.4843579    1.4971745   -3.9871834   0.98256754   0.99826075    9383.7105   0.73659561 
   91000   -5.4649147    1.4742826   -3.9906321   0.97705131    0.9829973    9383.7105   0.73659561 
   92000   -5.4805246    1.4853355    -3.995189   0.89449122   0.99036698    9383.7105   0.73659561 
   93000   -5.4728925     1.494113   -3.9787795   0.95595881   0.99621948    9383.7105   0.73659561 
   94000   -5.4718994    1.5000745   -3.9718249   0.96943221    1.0001944    9383.7105   0.73659561 
   95000   -5.4556046    1.5123776    -3.943227    1.0420953    1.0083976    9383.7105   0.73659561 
   96000    -5.456651     1.504791     -3.95186    1.0236716    1.0033391    9383.7105   0.73659561 
   97000    -5.462706    1.5089674   -3.9537386    1.0062061    1.0061238    9383.7105   0.73659561 
   98000    -5.472874    1.4907396   -3.9821344   0.97588755    0.9939702    9383.7105   0.73659561 
   99000   -5.4627227    1.4934364   -3.9692863    1.0298566   0.99576832    9383.7105   0.73659561 
  100000   -5.4675847    1.4941456   -3.9734391   0.92574895    0.9962412    9383.7105   0.73659561 
  101000   -5.4704798    1.4664356   -4.0040442    1.0055579   0.97776519    9383.7105   0.73659561 
  102000    -5.463297    1.4652083   -3.9980888   0.96970682   0.97694684    9383.7105   0.73659561 
  103000   -5.4765701    1.4895086   -3.9870615    1.0003034   0.99314944    9383.7105   0.73659561 
  104000   -5.4607604    1.4846859   -3.9760745    1.0571363   0.98993379    9383.7105   0.73659561 
  105000   -5.4777113    1.5138519   -3.9638594   0.98762281    1.0093806    9383.7105   0.73659561 
  106000   -5.4470851    1.5086765   -3.9384086    1.0225964    1.0059299    9383.7105   0.73659561 
  107000   -5.4449155    1.5119745    -3.932941    1.0726271    1.0081288    9383.7105   0.73659561 
  108000   -5.4674964    1.5180815   -3.9494149     1.058191    1.0122008    9383.7105   0.73659561 
  109000   -5.4541493    1.5055297   -3.9486197    1.1108954    1.0038317    9383.7105   0.73659561 
  110000   -5.4697995    1.5019882   -3.9678113   0.99837223    1.0014703    9383.7105   0.73659561 
  111000   -5.4671683    1.5271877   -3.9399806    1.0215622    1.0182725    9383.7105   0.73659561 
  112000   -5.4505931    1.4919482   -3.9586448    1.1125265   0.99477607    9383.7105   0.73659561 
  113000   -5.4786311    1.5147681    -3.963863   0.96681215    1.0099915    9383.7105   0.73659561 
  114000   -5.4680774    1.5000827   -3.9679947    1.0097311    1.0001998    9383.7105   0.73659561 
  115000   -5.4728441    1.4948115   -3.9780326   0.95773059   0.99668522    9383.7105   0.73659561 
  116000   -5.4679567    1.4826033   -3.9853534   0.99026641   0.98854521    9383.7105   0.73659561 
  117000   -5.4581178    1.4861765   -3.9719412   0.96768833   0.99092772    9383.7105   0.73659561 
  118000    -5.471922    1.4925476   -3.9793745   0.94784661   0.99517568    9383.7105   0.73659561 
  119000   -5.4719246    1.5010884   -3.9708362   0.99106641    1.0008704    9383.7105   0.73659561 
  120000   -5.4582296    1.4858834   -3.9723462     1.088498    0.9907323    9383.7105   0.73659561 
  121000   -5.4604414    1.4978261   -3.9626153    1.0937927   0.99869523    9383.7105   0.73659561 
  122000   -5.4544284    1.4918954    -3.962533    1.0302713   0.99474086    9383.7105   0.73659561 
  123000   -5.4568893    1.4863208   -3.9705685    1.0657172   0.99102393    9383.7105   0.73659561 
  124000   -5.4852508    1.5068026   -3.9784482   0.94091025    1.0046804    9383.7105   0.73659561 
  125000   -5.4814754    1.5128414   -3.9686341   0.97766217    1.0087068    9383.7105   0.73659561 
  126000   -5.4698325     1.481464   -3.9883685    0.9327125   0.98778559    9383.7105   0.73659561 
  127000   -5.4698293    1.5024211   -3.9674082     1.003362     1.001759    9383.7105   0.73659561 
  128000   -5.4669474    1.4915141   -3.9754333    1.0061281   0.99448661    9383.7105   0.73659561 
  129000   -5.4600141    1.4851999   -3.9748143    1.0345696   0.99027653    9383.7105   0.73659561 
  130000   -5.4714517    1.4846331   -3.9868186   0.98089614   0.98989863    9383.7105   0.73659561 
  131000   -5.4561704    1.4784429   -3.9777275    1.0529513   0.98577119    9383.7105   0.73659561 
  132000   -5.4728014    1.5030947   -3.9697066    1.0536617    1.0022081    9383.7105   0.73659561 
  133000   -5.4677127    1.4859574   -3.9817553   0.93940627    0.9907816    9383.7105   0.73659561 
  134000   -5.4649267    1.4883557   -3.9765709    1.0065345   0.99238073    9383.7105   0.73659561 
  135000   -5.4821586    1.4853476    -3.996811   0.96437753   0.99037502    9383.7105   0.73659561 
  136000   -5.4870482    1.5065243   -3.9805239   0.98144697    1.0044949    9383.7105   0.73659561 
  137000   -5.4750245    1.4973597   -3.9776649    0.9662498   0.99838422    9383.7105   0.73659561 
  138000   -5.4585676    1.5007727   -3.9577949    1.0883745    1.0006599    9383.7105   0.73659561 
  139000   -5.4533913    1.5094844   -3.9439069    1.0614139    1.0064685    9383.7105   0.73659561 
  140000   -5.4602079    1.5245628   -3.9356451   0.99219695    1.0165223    9383.7105   0.73659561 
  141000   -5.4319528    1.4897863   -3.9421666    1.1323638   0.99333456    9383.7105   0.73659561 
  142000   -5.4749088    1.5223064   -3.9526025   0.99016213    1.0150178    9383.7105   0.73659561 
  143000   -5.4713591    1.4756123   -3.9957468   0.97675501   0.98388386    9383.7105   0.73659561 
  144000   -5.4828518    1.4923379   -3.9905139   0.95673343   0.99503587    9383.7105   0.73659561 
  145000   -5.4446063     1.486344   -3.9582623    1.0909673   0.99103941    9383.7105   0.73659561 
  146000   -5.4511397    1.5137862   -3.9373535    1.0798804    1.0093368    9383.7105   0.73659561 
  147000    -5.453338    1.5058284   -3.9475096    1.0765815    1.0040309    9383.7105   0.73659561 
  148000   -5.4741897    1.5303091   -3.9438807     1.012876    1.0203537    9383.7105   0.73659561 
  149000   -5.4656184    1.5193539   -3.9462645    1.0359084    1.0130492    9383.7105   0.73659561 
  150000   -5.4735049    1.5320592   -3.9414458    1.0363294    1.0215206    9383.7105   0.73659561 
  151000   -5.4747847    1.5216181   -3.9531666   0.98055961    1.0145589    9383.7105   0.73659561 
  152000   -5.4683183    1.5118178   -3.9565005   0.98744018    1.0080244    9383.7105   0.73659561 
  153000   -5.4691757    1.5094322   -3.9597435   0.99799796    1.0064337    9383.7105   0.73659561 
  154000   -5.4632861     1.503566   -3.9597201   0.95816624    1.0025224    9383.7105   0.73659561 
  155000   -5.4557789    1.5100733   -3.9457056    1.0386687    1.0068612    9383.7105   0.73659561 
  156000   -5.4593187    1.4936487     -3.96567    1.0292302    0.9959099    9383.7105   0.73659561 
  157000   -5.4674391    1.4935404   -3.9738987    1.0395479   0.99583765    9383.7105   0.73659561 
  158000   -5.4803824     1.491935   -3.9884473   0.97489756   0.99476727    9383.7105   0.73659561 
  159000   -5.4704561    1.5000326   -3.9704234   0.96251468    1.0001665    9383.7105   0.73659561 
  160000   -5.4826085    1.5156913   -3.9669172   0.97470073    1.0106071    9383.7105   0.73659561 
  161000   -5.4633539    1.5150728   -3.9482811    1.1426496    1.0101947    9383.7105   0.73659561 
  162000   -5.4715914    1.5272709   -3.9443206    1.0155098    1.0183279    9383.7105   0.73659561 
  163000   -5.4590429    1.5044649    -3.954578    1.0901802    1.0031217    9383.7105   0.73659561 
  164000   -5.4575706    1.4932702   -3.9643004   0.98514807    0.9956575    9383.7105   0.73659561 
  165000   -5.4874564    1.5235412   -3.9639153   0.93472104    1.0158411    9383.7105   0.73659561 
  166000   -5.4501741    1.5199568   -3.9302173    1.0713835    1.0134511    9383.7105   0.73659561 
  167000   -5.4656125    1.5295089   -3.9361036    1.0006933    1.0198202    9383.7105   0.73659561 
  168000   -5.4471605    1.4936442   -3.9535163    1.0896208   0.99590686    9383.7105   0.73659561 
  169000   -5.4655038    1.4969042   -3.9685996    1.0094931   0.99808055    9383.7105   0.73659561 
  170000   -5.4767482    1.4941273   -3.9826209     0.961612   0.99622903    9383.7105   0.73659561 
  171000   -5.4735293    1.5039413   -3.9695879   0.96521208    1.0027726    9383.7105   0.73659561 
  172000   -5.4706925    1.4981327   -3.9725598      1.01682   0.99889968    9383.7105   0.73659561 
  173000   -5.4443523    1.5274974   -3.9168549    1.1237043     1.018479    9383.7105   0.73659561 
  174000   -5.4649775    1.5203519   -3.9446256    1.0393844    1.0137146    9383.7105   0.73659561 
  175000   -5.4598749    1.5142044   -3.9456705   0.95320608    1.0096157    9383.7105   0.73659561 
  176000   -5.4680149    1.4852725   -3.9827424    1.0065213   0.99032492    9383.7105   0.73659561 
  177000   -5.4698793    1.4788501   -3.9910292    0.9599116    0.9860427    9383.7105   0.73659561 
  178000   -5.4662678    1.4813563   -3.9849116    1.0085986   0.98771374    9383.7105   0.73659561 
  179000   -5.4715998    1.4794341   -3.9921657   0.97503183   0.98643213    9383.7105   0.73659561 
  180000   -5.4795612    1.4796199   -3.9999413   0.98140679   0.98655602    9383.7105   0.73659561 
  181000    -5.487937    1.5020457   -3.9858913   0.96278385    1.0015087    9383.7105   0.73659561 
  182000   -5.4699008     1.497252   -3.9726488    1.0063032   0.99831243    9383.7105   0.73659561 
  183000   -5.4897578    1.4970064   -3.9927514   0.84830876   0.99814868    9383.7105   0.73659561 
  184000   -5.4597999    1.4905633   -3.9692366    1.0734253   0.99385268    9383.7105   0.73659561 
  185000   -5.4736593    1.5168576   -3.9568017    1.0053904    1.0113847    9383.7105   0.73659561 
  186000   -5.4567297    1.4969755   -3.9597543    1.0359727   0.99812805    9383.7105   0.73659561 
  187000   -5.4855151    1.5293778   -3.9561374   0.89502366    1.0197327    9383.7105   0.73659561 
  188000   -5.4607251    1.5190493   -3.9416757     1.058276    1.0128461    9383.7105   0.73659561 
  189000   -5.4570486    1.5023625   -3.9546861    1.1159973    1.0017199    9383.7105   0.73659561 
  190000   -5.4558081    1.5088151    -3.946993    1.0299202    1.0060223    9383.7105   0.73659561 
  191000   -5.4634479    1.5183618   -3.9450862    1.0280484    1.0123876    9383.7105   0.73659561 
  192000   -5.4539746    1.5205914   -3.9333832    1.1138041    1.0138743    9383.7105   0.73659561 
  193000   -5.4735773    1.5098221   -3.9637553   0.97403362    1.0066937    9383.7105   0.73659561 
  194000   -5.4706843    1.5035742   -3.9671101    1.0047712    1.0025278    9383.7105   0.73659561 
  195000   -5.4611971    1.4899055   -3.9712917    1.0256514   0.99341403    9383.7105   0.73659561 
  196000   -5.4801416     1.499212   -3.9809296   0.97372098   0.99961932    9383.7105   0.73659561 
  197000   -5.4807732    1.4984579   -3.9823153   0.99488533   0.99911645    9383.7105   0.73659561 
  198000   -5.4615354    1.4810665   -3.9804688    1.0314558   0.98752054    9383.7105   0.73659561 
  199000   -5.4742063    1.5050475   -3.9691589   0.93731429    1.0035102    9383.7105   0.73659561 
  200000   -5.4813153    1.5051117   -3.9762036    1.0176116     1.003553    9383.7105   0.73659561 
  201000   -5.4722503     1.490774   -3.9814762   0.95844503   0.99399314    9383.7105   0.73659561 
  202000   -5.4679595    1.4836888   -3.9842707   0.95046017   0.98926896    9383.7105   0.73659561 
  203000   -5.4765179    1.5095382   -3.9669797   0.97702618    1.0065044    9383.7105   0.73659561 
  204000   -5.4574965    1.5099693   -3.9475272    1.0695786    1.0067919    9383.7105   0.73659561 
  205000   -5.4574066    1.4954655   -3.9619411    1.0470184   0.99712125    9383.7105   0.73659561 
  206000    -5.474768     1.522381    -3.952387    1.0309964    1.0150675    9383.7105   0.73659561 
  207000   -5.4570825    1.5016353   -3.9554472    1.1249984    1.0012351    9383.7105   0.73659561 
  208000   -5.4624831    1.5234832   -3.9389999    1.0356356    1.0158024    9383.7105   0.73659561 
  209000   -5.4632141    1.5178634   -3.9453507   0.96780657    1.0120553    9383.7105   0.73659561 
  210000   -5.4835902    1.4955092    -3.988081   0.89400897    0.9971504    9383.7105   0.73659561 
  211000   -5.4803408    1.5097663   -3.9705744   0.93334587    1.0066565    9383.7105   0.73659561 
  212000   -5.4741651    1.5101571    -3.964008    1.0003501    1.0069171    9383.7105   0.73659561 
  213000   -5.4393255    1.4958215    -3.943504    1.1355965    0.9973586    9383.7105   0.73659561 
  214000   -5.4606873    1.4925905   -3.9680968    1.0597827    0.9952043    9383.7105   0.73659561 
  215000   -5.4857817    1.5157247    -3.970057   0.96033893    1.0106293    9383.7105   0.73659561 
  216000    -5.471143    1.5145477   -3.9565953   0.93591666    1.0098446    9383.7105   0.73659561 
  217000   -5.4575358    1.5072692   -3.9502666    1.0768012    1.0049915    9383.7105   0.73659561 
  218000   -5.4506835    1.5067193   -3.9439642    1.1244248    1.0046249    9383.7105   0.73659561 
  219000   -5.4502494     1.516222   -3.9340274     1.059615    1.0109609    9383.7105   0.73659561 
  220000   -5.4614303    1.5253836   -3.9360467    1.0685184    1.0170696    9383.7105   0.73659561 
  221000   -5.4660094    1.4903939   -3.9756155    1.0053707   0.99373968    9383.7105   0.73659561 
  222000   -5.4777894    1.4862592   -3.9915302   0.91705624   0.99098287    9383.7105   0.73659561 
  223000   -5.4690252    1.4906244   -3.9784008     1.030394    0.9938934    9383.7105   0.73659561 
  224000   -5.4792795    1.5075195     -3.97176   0.95013736    1.0051584    9383.7105   0.73659561 
  225000   -5.4691124    1.4864106   -3.9827018    0.9845763   0.99108379    9383.7105   0.73659561 
  226000   -5.4631613    1.4987869   -3.9643743     1.009551   0.99933588    9383.7105   0.73659561 
  227000   -5.4717657    1.4715398    -4.000226   0.96867967   0.98116845    9383.7105   0.73659561 
  228000   -5.4629361    1.4773644   -3.9855717   0.97141804   0.98505211    9383.7105   0.73659561 
  229000   -5.4651191    1.4866704   -3.9784486    1.0016966   0.99125703    9383.7105   0.73659561 
  230000   -5.4708732    1.4857199   -3.9851532    0.9595762   0.99062326    9383.7105   0.73659561 
  231000   -5.4863525    1.4959178   -3.9904347    0.9234997   0.99742284    9383.7105   0.73659561 
  232000   -5.4830535    1.4883127   -3.9947408   0.92352242   0.99235205    9383.7105   0.73659561 
  233000   -5.4610296    1.4870355   -3.9739941    1.0242443   0.99150048    9383.7105   0.73659561 
  234000   -5.4714559    1.4852497   -3.9862062    1.0241062   0.99030976    9383.7105   0.73659561 
  235000   -5.4839434    1.5067564    -3.977187   0.88651398    1.0046496    9383.7105   0.73659561 
  236000   -5.4666379    1.4867685   -3.9798694    1.0248713   0.99132239    9383.7105   0.73659561 
  237000   -5.4868201    1.4927925   -3.9940276    0.9137831   0.99533899    9383.7105   0.73659561 
  238000   -5.4772051     1.502263   -3.9749421   0.98667277    1.0016536    9383.7105   0.73659561 
  239000   -5.4644961    1.4946457   -3.9698505   0.97129415   0.99657463    9383.7105   0.73659561 
  240000   -5.4614873    1.4816366   -3.9798507     1.003577   0.98790063    9383.7105   0.73659561 
  241000   -5.4813688    1.4923359   -3.9890329   0.98785078   0.99503457    9383.7105   0.73659561 
  242000   -5.4886472    1.4788943   -4.0097529   0.95247359   0.98607222    9383.7105   0.73659561 
  243000   -5.4681513    1.4775342    -3.990617   0.95932089   0.98516536    9383.7105   0.73659561 
  244000   -5.4768986    1.4965887   -3.9803099    1.0472025   0.99787017    9383.7105   0.73659561 
  245000   -5.4670004    1.5007461   -3.9662543      0.97561    1.0006422    9383.7105   0.73659561 
  246000   -5.4736022    1.4874842    -3.986118   0.90615141   0.99179963    9383.7105   0.73659561 
  247000   -5.4617025    1.4893751   -3.9723275    1.0199146   0.99306039    9383.7105   0.73659561 
  248000   -5.4896149     1.483279   -4.0063359   0.90643638   0.98899572    9383.7105   0.73659561 
  249000   -5.4892891     1.489385   -3.9999042   0.96662055   0.99306698    9383.7105   0.73659561 
  250000   -5.4789504    1.4921063   -3.9868442   0.98757627   0.99488145    9383.7105   0.73659561 
Loop time of 1871.59 on 2 procs for 200000 steps with 6912 atoms

Performance: 46163.982 tau/day, 106.861 timesteps/s
99.2% CPU use with 2 MPI tasks x no OpenMP threads

MPI task timing breakdown:
Section |  min time  |  avg time  |  max time  |%varavg| %total
---------------------------------------------------------------
Pair    | 1503.5     | 1567.5     | 1631.4     | 161.5 | 83.75
Neigh   | 161.65     | 165.51     | 169.37     |  30.0 |  8.84
Comm    | 40.511     | 108.46     | 176.42     | 652.5 |  5.80
Output  | 1.062      | 1.0633     | 1.0645     |   0.1 |  0.06
Modify  | 24.421     | 24.435     | 24.449     |   0.3 |  1.31
Other   |            | 4.641      |            |       |  0.25

Nlocal:    3456 ave 3513 max 3399 min
Histogram: 1 0 0 0 0 0 0 0 0 1
Nghost:    7479.5 ave 7505 max 7454 min
Histogram: 1 0 0 0 0 0 0 0 0 1
Neighs:    291326 ave 305278 max 277373 min
Histogram: 1 0 0 0 0 0 0 0 0 1

Total # of neighbors = 582651
Ave neighs/atom = 84.2956
Neighbor list builds = 10000
Dangerous builds not checked
unfix       intnvt
uncompute   rdfnvt
unfix       rdfnvt
undump      idnvt

next      a
jump      in.melt epsloop
variable    a loop 10   #loop parameter defined
variable    eps equal 0.5+($a-1)*0.5
variable    eps equal 0.5+(7-1)*0.5
if "${eps} > 2" then "variable eps equal 2.0+($a-4)*2.0" #epsilon value will increase at rate of 0.5 from 0.5 till 2.0
variable eps equal 2.0+($a-4)*2.0
variable eps equal 2.0+(7-4)*2.0


#Seeting the pair coefficient for all types of interaction
pair_coeff	1 1 10.0 1.0 3.5  # epsilon sigma and rcut is defined repectively
pair_coeff	1 2 ${eps} 1.0 3.5
pair_coeff	1 2 8 1.0 3.5
pair_coeff	2 2 0.8 1.0 3.5 # Use epsilon(nanoparticle)=10.0


minimize  1.0e-4 1.0e-6 100 1000
WARNING: Using 'neigh_modify every 1 delay 0 check yes' setting during minimization (../min.cpp:190)
Neighbor list info ...
  update every 1 steps, delay 0 steps, check yes
  max neighbors/atom: 2000, page size: 100000
  master list distance cutoff = 3.8
  ghost atom cutoff = 3.8
  binsize = 1.9, bins = 12 12 12
  1 neighbor lists, perpetual/occasional/extra = 1 0 0
  (1) pair lj/cut, perpetual
      attributes: half, newton on
      pair build: half/bin/atomonly/newton
      stencil: half/bin/3d/newton
      bin: standard
Per MPI rank memory allocation (min/avg/max) = 5.417 | 5.608 | 5.799 Mbytes
Step PotEng KinEng TotEng Press Temp Volume Density 
  250000   -5.6833968    1.4921063   -4.1912905   0.93514184   0.99488145    9383.7105   0.73659561 
  250100   -6.8165556    1.4921063   -5.3244493    -1.444784   0.99488145    9383.7105   0.73659561 
Loop time of 2.88119 on 2 procs for 100 steps with 6912 atoms

99.5% CPU use with 2 MPI tasks x no OpenMP threads

Minimization stats:
  Stopping criterion = max iterations
  Energy initial, next-to-last, final = 
        -5.68339675922     -6.81308523695     -6.81655557821
  Force two-norm initial, final = 2431.04 264.393
  Force max component initial, final = 187.871 32.1968
  Final line search alpha, max atom move = 0.00157492 0.0507074
  Iterations, force evaluations = 100 198

MPI task timing breakdown:
Section |  min time  |  avg time  |  max time  |%varavg| %total
---------------------------------------------------------------
Pair    | 2.1979     | 2.3193     | 2.4406     |   8.0 | 80.50
Neigh   | 0.35619    | 0.36605    | 0.37591    |   1.6 | 12.70
Comm    | 0.031876   | 0.16305    | 0.29423    |  32.5 |  5.66
Output  | 7.2296e-05 | 8.0608e-05 | 8.892e-05  |   0.0 |  0.00
Modify  | 0          | 0          | 0          |   0.0 |  0.00
Other   |            | 0.03275    |            |       |  1.14

Nlocal:    3456 ave 3507 max 3405 min
Histogram: 1 0 0 0 0 0 0 0 0 1
Nghost:    7470.5 ave 7515 max 7426 min
Histogram: 1 0 0 0 0 0 0 0 0 1
Neighs:    292301 ave 306566 max 278036 min
Histogram: 1 0 0 0 0 0 0 0 0 1

Total # of neighbors = 584602
Ave neighs/atom = 84.5778
Neighbor list builds = 24
Dangerous builds not checked

neighbor	0.3 bin   #skin factor is taken to 0.3
neigh_modify	every 20 delay 0 check no
timestep 0.005
variable nthermo equal 1000
variable temp equal 1.0
variable tdamp equal 1.0
variable pext equal 1.0
variable pdamp equal 10.0
variable Nevery equal 1000
variable Nfreq equal 100000
variable Nrepeat equal 100
reset_timestep 0

#Using Npt to Calculate the rdf

fix 		intnpt all npt temp ${temp} ${temp} ${tdamp} iso ${pext} ${pext} ${pdamp}
fix 		intnpt all npt temp 1 ${temp} ${tdamp} iso ${pext} ${pext} ${pdamp}
fix 		intnpt all npt temp 1 1 ${tdamp} iso ${pext} ${pext} ${pdamp}
fix 		intnpt all npt temp 1 1 1 iso ${pext} ${pext} ${pdamp}
fix 		intnpt all npt temp 1 1 1 iso 1 ${pext} ${pdamp}
fix 		intnpt all npt temp 1 1 1 iso 1 1 ${pdamp}
fix 		intnpt all npt temp 1 1 1 iso 1 1 10
dump		id all atom 1000 out.dump.npt.${eps}.lammpstrj
dump		id all atom 1000 out.dump.npt.8.lammpstrj
thermo		${nthermo}
thermo		1000
thermo_style custom step pe ke etotal press temp vol density
restart 25000 restartnpt1.data restartnpt2.data
run		  50000
Per MPI rank memory allocation (min/avg/max) = 4.926 | 5.117 | 5.308 Mbytes
Step PotEng KinEng TotEng Press Temp Volume Density 
       0   -6.8165556    1.4921063   -5.3244493    -1.444784   0.99488145    9383.7105   0.73659561 
    1000   -5.9796312    1.4572448   -4.5223864    1.5178541   0.97163713    8723.4491   0.79234715 
    2000   -5.7406965    1.5098475    -4.230849    1.0683498    1.0067107    9261.8781   0.74628493 
    3000   -5.6988581    1.5036886   -4.1951695    0.9661289    1.0026041    9367.8961    0.7378391 
    4000   -5.6889402    1.4983965   -4.1905436    1.0712206   0.99907555    9371.0246   0.73759277 
    5000   -5.6853878    1.4952372   -4.1901507    1.0338484   0.99696901    9378.2557   0.73702405 
    6000    -5.692626      1.49504    -4.197586   0.93652786   0.99683758    9375.1658   0.73726696 
    7000   -5.6943251    1.4974228   -4.1969023    1.0505634   0.99842632    9356.2348   0.73875871 
    8000   -5.6980645    1.4937152   -4.2043493   0.95286707    0.9959542    9356.7203   0.73872038 
    9000   -5.7167618    1.5099011   -4.2068607   0.95978578    1.0067464    9356.8641   0.73870903 
   10000   -5.6991526    1.4978342   -4.2013183   0.98248706   0.99870063    9387.9751   0.73626101 
   11000   -5.6801272    1.4880945   -4.1920327    1.0268511   0.99220655    9384.3973   0.73654171 
   12000   -5.7191413    1.4948921   -4.2242492   0.93560699   0.99673896    9331.3214   0.74073111 
   13000   -5.6873157    1.4628104   -4.2245053   0.89315685   0.97534802    9418.3799   0.73388418 
   14000   -5.7123833    1.5014912   -4.2108921   0.93792265     1.001139    9368.1234   0.73782119 
   15000   -5.6803031     1.487036   -4.1932671   0.94940894   0.99150079    9383.6938   0.73659692 
   16000   -5.6895512    1.4940501   -4.1955011   0.97966983   0.99617755    9402.0352   0.73515998 
   17000   -5.7152055    1.5022559   -4.2129496   0.94701238    1.0016489    9352.9495   0.73901821 
   18000   -5.6715477    1.4949146   -4.1766332    0.9354225   0.99675391    9440.0066   0.73220287 
   19000   -5.6903914     1.504225   -4.1861664   0.95090826    1.0029618     9375.661   0.73722802 
   20000   -5.7067841    1.4911202   -4.2156639    1.0755628     0.994224     9298.666   0.74333243 
   21000   -5.6618567    1.5145364   -4.1473203   0.99536325     1.009837    9436.9601   0.73243925 
   22000   -5.7011706    1.4887127   -4.2124578    1.0407303   0.99261875    9322.6795   0.74141774 
   23000   -5.7129585    1.4965253   -4.2164332    1.0333737    0.9978279    9331.3164    0.7407315 
   24000    -5.688692    1.4854185   -4.2032735   0.93488145   0.99042227    9403.4955   0.73504581 
   25000   -5.6722159    1.4840123   -4.1882037   0.99385078   0.98948467    9406.9053   0.73477937 
   26000   -5.7048136    1.4999107   -4.2049029   0.92300531    1.0000852    9377.5236   0.73708159 
   27000   -5.6928674    1.4887733    -4.204094   0.88605455   0.99265917    9399.9723   0.73532132 
   28000   -5.6974528    1.4802746   -4.2171782    1.0798129   0.98699251    9316.9433   0.74187421 
   29000    -5.695845    1.4960493   -4.1997957    1.1132408   0.99751049    9321.7597    0.7414909 
   30000   -5.6473224    1.4897503   -4.1575721    1.0649553    0.9933106    9441.9423   0.73205277 
   31000   -5.7348649      1.49863   -4.2362349    1.0061857   0.99923123    9305.5682   0.74278108 
   32000   -5.6775262    1.4920715   -4.1854547     1.082005    0.9948583    9409.4456     0.734581 
   33000   -5.6893017    1.4943499   -4.1949519   0.91934476    0.9963774     9409.042   0.73461252 
   34000   -5.7303678    1.4948723   -4.2354954    1.0440911   0.99672576    9268.0346   0.74578919 
   35000   -5.6904633    1.5042891   -4.1861742    1.0120995    1.0030045    9389.6198   0.73613204 
   36000   -5.6799641    1.5083541     -4.17161   0.98112034    1.0057149    9411.9947   0.73438205 
   37000   -5.6852046    1.4907874   -4.1944172    1.0095458   0.99400208    9364.3898   0.73811537 
   38000   -5.6864826    1.4898661   -4.1966165    0.9737854    0.9933878    9381.8394   0.73674252 
   39000   -5.6854272    1.4890061   -4.1964211    1.0593615   0.99281434    9386.1962   0.73640055 
   40000    -5.692935    1.5000469   -4.1928881    1.0144467     1.000176    9387.3988   0.73630621 
   41000   -5.6811646    1.4677856    -4.213379    1.0816044   0.97866533    9397.1716   0.73554047 
   42000   -5.7160681    1.4899874   -4.2260807    1.0536195   0.99346867    9329.6015   0.74086766 
   43000   -5.6897165    1.4800329   -4.2096836   0.96968172   0.98683136    9395.7425   0.73565234 
   44000   -5.6731067    1.4851272   -4.1879795    1.0041499   0.99022808     9406.818    0.7347862 
   45000   -5.6788583    1.5004673   -4.1783911    1.0551835    1.0004563    9360.8676    0.7383931 
   46000   -5.6979272    1.5068881   -4.1910391    1.0504317    1.0047374    9363.9042   0.73815364 
   47000   -5.6817741     1.521401   -4.1603731    1.0972101    1.0144141    9383.3272    0.7366257 
   48000   -5.6903009    1.5080726   -4.1822283   0.94990088    1.0055272    9369.9091   0.73768058 
   49000   -5.6996723    1.5273821   -4.1722902    1.1014902    1.0184021    9330.7848    0.7407737 
   50000   -5.6839174    1.5140777   -4.1698397    1.1349581    1.0095312     9371.781   0.73753324 
Loop time of 460.999 on 2 procs for 50000 steps with 6912 atoms

Performance: 46854.726 tau/day, 108.460 timesteps/s
99.5% CPU use with 2 MPI tasks x no OpenMP threads

MPI task timing breakdown:
Section |  min time  |  avg time  |  max time  |%varavg| %total
---------------------------------------------------------------
Pair    | 367.26     | 383.19     | 399.12     |  81.4 | 83.12
Neigh   | 39.357     | 40.39      | 41.423     |  16.3 |  8.76
Comm    | 7.5862     | 24.606     | 41.626     | 343.1 |  5.34
Output  | 0.25813    | 0.25851    | 0.25889    |   0.1 |  0.06
Modify  | 11.455     | 11.503     | 11.552     |   1.4 |  2.50
Other   |            | 1.049      |            |       |  0.23

Nlocal:    3456 ave 3511 max 3401 min
Histogram: 1 0 0 0 0 0 0 0 0 1
Nghost:    7478 ave 7521 max 7435 min
Histogram: 1 0 0 0 0 0 0 0 0 1
Neighs:    291999 ave 303600 max 280398 min
Histogram: 1 0 0 0 0 0 0 0 0 1

Total # of neighbors = 583998
Ave neighs/atom = 84.4905
Neighbor list builds = 2500
Dangerous builds not checked
unfix   intnpt
undump  id


#Using Nvt to calculate the rdf

fix         intnvt all nvt temp ${temp} ${temp} ${tdamp}
fix         intnvt all nvt temp 1 ${temp} ${tdamp}
fix         intnvt all nvt temp 1 1 ${tdamp}
fix         intnvt all nvt temp 1 1 1
compute     rdfnvt all rdf 100 1 1 1 2 2 2
fix         rdfnvt all ave/time ${Nevery} ${Nrepeat} ${Nfreq} c_rdfnvt[*] file systemnvt.rdf.${eps} mode vector ave window 2
fix         rdfnvt all ave/time 1000 ${Nrepeat} ${Nfreq} c_rdfnvt[*] file systemnvt.rdf.${eps} mode vector ave window 2
fix         rdfnvt all ave/time 1000 100 ${Nfreq} c_rdfnvt[*] file systemnvt.rdf.${eps} mode vector ave window 2
fix         rdfnvt all ave/time 1000 100 100000 c_rdfnvt[*] file systemnvt.rdf.${eps} mode vector ave window 2
fix         rdfnvt all ave/time 1000 100 100000 c_rdfnvt[*] file systemnvt.rdf.8 mode vector ave window 2
dump        idnvt all atom 1000 out.dump.nvt.${eps}.lammpstrj
dump        idnvt all atom 1000 out.dump.nvt.8.lammpstrj
thermo      ${nthermo}
thermo      1000
thermo_style custom step pe ke etotal press temp vol density
restart     100000 restartnvt1.data restartnvt2.data
run         200000
Neighbor list info ...
  update every 20 steps, delay 0 steps, check no
  max neighbors/atom: 2000, page size: 100000
  master list distance cutoff = 3.8
  ghost atom cutoff = 3.8
  binsize = 1.9, bins = 12 12 12
  2 neighbor lists, perpetual/occasional/extra = 1 1 0
  (1) pair lj/cut, perpetual
      attributes: half, newton on
      pair build: half/bin/atomonly/newton
      stencil: half/bin/3d/newton
      bin: standard
  (2) compute rdf, occasional, copy from (1)
      attributes: half, newton on
      pair build: copy
      stencil: none
      bin: none
Per MPI rank memory allocation (min/avg/max) = 4.927 | 5.117 | 5.308 Mbytes
Step PotEng KinEng TotEng Press Temp Volume Density 
   50000   -5.6839174    1.5140777   -4.1698397    1.1349581    1.0095312     9371.781   0.73753324 
   51000   -5.6774329     1.490002   -4.1874309    1.0470817    0.9934784     9371.781   0.73753324 
   52000   -5.6786308    1.4957281   -4.1829027    0.9898412   0.99729634     9371.781   0.73753324 
   53000   -5.6937117    1.4833448   -4.2103669   0.92991702   0.98903963     9371.781   0.73753324 
   54000   -5.7104746     1.482948   -4.2275266   0.98363925   0.98877504     9371.781   0.73753324 
   55000   -5.7131337    1.4816333   -4.2315004   0.92566371   0.98789845     9371.781   0.73753324 
   56000    -5.694674    1.5045862   -4.1900878    1.0441546    1.0032026     9371.781   0.73753324 
   57000   -5.6964523    1.5308182   -4.1656341    1.0167582    1.0206931     9371.781   0.73753324 
   58000    -5.683375    1.5028794   -4.1804955    1.0452104    1.0020646     9371.781   0.73753324 
   59000   -5.6955516    1.5032906   -4.1922609   0.99404412    1.0023388     9371.781   0.73753324 
   60000   -5.6980162    1.4939445   -4.2040717    1.0335443   0.99610713     9371.781   0.73753324 
   61000   -5.6989717    1.5103578   -4.1886138    1.0216736    1.0070509     9371.781   0.73753324 
   62000    -5.671014    1.4936057   -4.1774083    1.1141307   0.99588121     9371.781   0.73753324 
   63000   -5.6771947    1.5386772   -4.1385174    1.1182366    1.0259333     9371.781   0.73753324 
   64000   -5.6965353    1.5020191   -4.1945161    0.9779144     1.001491     9371.781   0.73753324 
   65000   -5.6923693    1.4967674   -4.1956019   0.95642271   0.99798932     9371.781   0.73753324 
   66000   -5.6982848    1.5023234   -4.1959615     1.009085    1.0016938     9371.781   0.73753324 
   67000   -5.6898012     1.520273   -4.1695283   0.96551832     1.013662     9371.781   0.73753324 
   68000   -5.6937099    1.5174883   -4.1762217   0.97047394    1.0118052     9371.781   0.73753324 
   69000   -5.6725371    1.4945254   -4.1780117    1.0737576   0.99649441     9371.781   0.73753324 
   70000   -5.6846109     1.497258   -4.1873529    1.0389045   0.99831643     9371.781   0.73753324 
   71000   -5.6903157    1.4909947    -4.199321    1.0776813    0.9941403     9371.781   0.73753324 
   72000   -5.6951301    1.4919864   -4.2031437   0.95672142   0.99480152     9371.781   0.73753324 
   73000    -5.696396    1.5337505   -4.1626455   0.96405604    1.0226483     9371.781   0.73753324 
   74000   -5.6848208    1.4989939   -4.1858269    1.0156983   0.99947386     9371.781   0.73753324 
   75000    -5.692108    1.4991376   -4.1929704    1.0918314   0.99956965     9371.781   0.73753324 
   76000   -5.6964554    1.5025151   -4.1939402   0.98877286    1.0018217     9371.781   0.73753324 
   77000   -5.7034244    1.5094038   -4.1940206    1.0218378    1.0064148     9371.781   0.73753324 
   78000   -5.6871077    1.5016997    -4.185408    1.0618073     1.001278     9371.781   0.73753324 
   79000   -5.6766189    1.4971678   -4.1794511     1.086073   0.99825627     9371.781   0.73753324 
   80000   -5.6777123    1.4765094   -4.2012028    1.0339634   0.98448206     9371.781   0.73753324 
   81000    -5.685341     1.487334    -4.198007   0.99293807   0.99169948     9371.781   0.73753324 
   82000   -5.6851729    1.5075679    -4.177605    1.0097852    1.0051907     9371.781   0.73753324 
   83000    -5.682053    1.5093915   -4.1726614    1.0885184    1.0064066     9371.781   0.73753324 
   84000   -5.6880519    1.5127529   -4.1752989    1.0591318    1.0086479     9371.781   0.73753324 
   85000   -5.6813291    1.5028784   -4.1784507     1.061182    1.0020639     9371.781   0.73753324 
   86000   -5.6850239    1.4937977   -4.1912262   0.99159067   0.99600921     9371.781   0.73753324 
   87000   -5.7149708    1.5059305   -4.2090403   0.95847393     1.004099     9371.781   0.73753324 
   88000   -5.6958744    1.4738961   -4.2219783   0.96698339   0.98273959     9371.781   0.73753324 
   89000   -5.6967257    1.4781656   -4.2185602    1.0057451   0.98558629     9371.781   0.73753324 
   90000   -5.7109084    1.4973163   -4.2135921     1.053538    0.9983553     9371.781   0.73753324 
   91000   -5.7049409    1.5083773   -4.1965636    0.9903051    1.0057304     9371.781   0.73753324 
   92000   -5.6918056    1.4826707   -4.2091349   0.96277274   0.98859014     9371.781   0.73753324 
   93000   -5.6949776     1.498189   -4.1967886    1.0203687   0.99893719     9371.781   0.73753324 
   94000    -5.691017    1.4996377   -4.1913793   0.99092492   0.99990315     9371.781   0.73753324 
   95000   -5.7044987    1.5323772   -4.1721215   0.96366266    1.0217326     9371.781   0.73753324 
   96000   -5.6839768    1.5070091   -4.1769677    1.0805869    1.0048181     9371.781   0.73753324 
   97000   -5.6760962    1.4908089   -4.1852873   0.98934665   0.99401643     9371.781   0.73753324 
   98000   -5.6865485    1.4699985     -4.21655    1.0243597   0.98014077     9371.781   0.73753324 
   99000   -5.7038757    1.4804071   -4.2234686   0.98083711   0.98708086     9371.781   0.73753324 
  100000   -5.6960418    1.4818733   -4.2141685   0.94083885   0.98805848     9371.781   0.73753324 
  101000   -5.7034449    1.4953162   -4.2081286    1.0043752   0.99702173     9371.781   0.73753324 
  102000   -5.6955166    1.4972674   -4.1982492   0.94046402   0.99832273     9371.781   0.73753324 
  103000   -5.6979582    1.5150601   -4.1828981    1.0567024    1.0101862     9371.781   0.73753324 
  104000   -5.6735181    1.4995751   -4.1739431    1.0655881   0.99986136     9371.781   0.73753324 
  105000   -5.6868029    1.5231277   -4.1636752    1.0517289    1.0155654     9371.781   0.73753324 
  106000   -5.6972728    1.5384635   -4.1588093   0.96720988    1.0257907     9371.781   0.73753324 
  107000   -5.6879996    1.4868243   -4.2011753   0.97760481   0.99135965     9371.781   0.73753324 
  108000    -5.703917    1.5062131   -4.1977039   0.98554013    1.0042873     9371.781   0.73753324 
  109000   -5.7262897    1.5046396   -4.2216501   0.77718722    1.0032382     9371.781   0.73753324 
  110000   -5.7030498    1.4968613   -4.2061885    0.9362158   0.99805196     9371.781   0.73753324 
  111000   -5.7105626     1.500286   -4.2102766   0.91693859    1.0003354     9371.781   0.73753324 
  112000   -5.7010617    1.5007446   -4.2003171   0.97926514    1.0006412     9371.781   0.73753324 
  113000    -5.698543    1.5023387   -4.1962043    1.0005627    1.0017041     9371.781   0.73753324 
  114000   -5.7077204    1.5132007   -4.1945197   0.92557782    1.0089464     9371.781   0.73753324 
  115000   -5.6776289    1.5051189     -4.17251     0.957651    1.0035578     9371.781   0.73753324 
  116000   -5.6921217    1.5229317     -4.16919     1.039575    1.0154347     9371.781   0.73753324 
  117000   -5.6948805    1.4829671   -4.2119135   0.98780201   0.98878776     9371.781   0.73753324 
  118000   -5.6808567    1.4921221   -4.1887346    1.0199806   0.99489203     9371.781   0.73753324 
  119000   -5.6919714    1.5080989   -4.1838725    1.0549305    1.0055447     9371.781   0.73753324 
  120000   -5.6820712    1.5004263   -4.1816449    1.0274459     1.000429     9371.781   0.73753324 
  121000   -5.6789388    1.5029573   -4.1759816    1.0720841    1.0021165     9371.781   0.73753324 
  122000    -5.694661    1.4971563   -4.1975047    1.0281316   0.99824862     9371.781   0.73753324 
  123000    -5.691593    1.4923439   -4.1992492   0.97432088   0.99503989     9371.781   0.73753324 
  124000   -5.6901106    1.4960764   -4.1940342   0.97969474   0.99752858     9371.781   0.73753324 
  125000   -5.6639741    1.5103703   -4.1536039    1.1209566    1.0070592     9371.781   0.73753324 
  126000   -5.6974991    1.5366162   -4.1608829   0.97389533    1.0245591     9371.781   0.73753324 
  127000   -5.6927041    1.5141318   -4.1785723    1.0478791    1.0095673     9371.781   0.73753324 
  128000   -5.6852755    1.5105422   -4.1747333    1.0111607    1.0071738     9371.781   0.73753324 
  129000   -5.6952547    1.5031683   -4.1920864    1.0428612    1.0022572     9371.781   0.73753324 
  130000   -5.6889732    1.4917132   -4.1972601   0.98411231   0.99461935     9371.781   0.73753324 
  131000   -5.6792637    1.5002563   -4.1790073    1.0376948    1.0003156     9371.781   0.73753324 
  132000   -5.6885545    1.5012351   -4.1873194    1.0428722    1.0009682     9371.781   0.73753324 
  133000   -5.6996989    1.5136368   -4.1860621    1.0351609    1.0092372     9371.781   0.73753324 
  134000   -5.6802147    1.5129269   -4.1672878    1.0389006    1.0087639     9371.781   0.73753324 
  135000    -5.690675    1.5050086   -4.1856663    1.0037154    1.0034843     9371.781   0.73753324 
  136000   -5.6916536    1.5020613   -4.1895923   0.95838206    1.0015191     9371.781   0.73753324 
  137000   -5.6969986    1.4877793   -4.2092193   0.92389161   0.99199638     9371.781   0.73753324 
  138000   -5.7075464    1.4902743   -4.2172721    0.8995212   0.99365995     9371.781   0.73753324 
  139000   -5.7045799    1.4983054   -4.2062745   0.95388473    0.9990148     9371.781   0.73753324 
  140000   -5.6950851    1.4819727   -4.2131124   0.95622875   0.98812478     9371.781   0.73753324 
  141000   -5.7034576    1.4681126   -4.2353449    1.0024984   0.97888336     9371.781   0.73753324 
  142000   -5.7220016    1.4906575    -4.231344   0.82227706   0.99391548     9371.781   0.73753324 
  143000   -5.7035293    1.4975045   -4.2060247    1.0314617    0.9984808     9371.781   0.73753324 
  144000   -5.7114164    1.4987349   -4.2126815   0.95263471   0.99930119     9371.781   0.73753324 
  145000   -5.6972918    1.4962274   -4.2010644   0.97832996   0.99762929     9371.781   0.73753324 
  146000   -5.6878564    1.4956025    -4.192254   0.91846727   0.99721259     9371.781   0.73753324 
  147000   -5.6735673    1.5144787   -4.1590886    1.0361168    1.0097985     9371.781   0.73753324 
  148000   -5.6717769    1.5060413   -4.1657355    1.1450705    1.0041728     9371.781   0.73753324 
  149000   -5.6759162    1.5052309   -4.1706853    1.0579965    1.0036325     9371.781   0.73753324 
  150000   -5.6805619    1.5069913   -4.1735707    1.0728263    1.0048062     9371.781   0.73753324 
  151000   -5.6776827    1.5037554   -4.1739272    1.0441435    1.0026487     9371.781   0.73753324 
  152000   -5.6869341     1.504807   -4.1821271    1.0050219    1.0033498     9371.781   0.73753324 
  153000   -5.6773243    1.4889981   -4.1883262    1.0073936   0.99280901     9371.781   0.73753324 
  154000   -5.6918805     1.511829   -4.1800514    1.1031619    1.0080319     9371.781   0.73753324 
  155000   -5.6908803    1.4900767   -4.2008037    1.0267492   0.99352819     9371.781   0.73753324 
  156000   -5.7029121    1.4826818   -4.2202304   0.99778284   0.98859753     9371.781   0.73753324 
  157000   -5.7078027    1.4829552   -4.2248475   0.94823302   0.98877984     9371.781   0.73753324 
  158000   -5.6988696    1.4832678   -4.2156018   0.94846534    0.9889883     9371.781   0.73753324 
  159000   -5.7118979    1.5036569    -4.208241   0.89997404     1.002583     9371.781   0.73753324 
  160000   -5.6982211    1.4903166   -4.2079045    1.0336656   0.99368814     9371.781   0.73753324 
  161000   -5.6841042    1.4596182   -4.2244859    1.1010048   0.97321963     9371.781   0.73753324 
  162000   -5.6921684    1.4787646   -4.2134038    1.0853895   0.98598575     9371.781   0.73753324 
  163000    -5.704627    1.4962635   -4.2083636    0.9512756   0.99765331     9371.781   0.73753324 
  164000   -5.7064059    1.5063168   -4.2000891   0.95903464    1.0043565     9371.781   0.73753324 
  165000   -5.6925324    1.5292032   -4.1633293    1.0315181    1.0196163     9371.781   0.73753324 
  166000   -5.6858839    1.5173685   -4.1685155    1.0636218    1.0117253     9371.781   0.73753324 
  167000   -5.6951209     1.519378   -4.1757429    1.0024505    1.0130653     9371.781   0.73753324 
  168000   -5.7039017    1.5146516   -4.1892501   0.96071763    1.0099138     9371.781   0.73753324 
  169000   -5.6867974    1.4884302   -4.1983672    1.0540176   0.99243038     9371.781   0.73753324 
  170000   -5.6900673    1.4914534    -4.198614   0.98047918   0.99444611     9371.781   0.73753324 
  171000   -5.7079453    1.5059134   -4.2020319   0.96276669    1.0040875     9371.781   0.73753324 
  172000   -5.6995838    1.4997353   -4.1998485   0.96726726   0.99996819     9371.781   0.73753324 
  173000   -5.6882161    1.5103821    -4.177834    1.0537366    1.0070671     9371.781   0.73753324 
  174000   -5.6983921    1.5123981   -4.1859941   0.93476338    1.0084113     9371.781   0.73753324 
  175000   -5.6841848    1.5041749   -4.1800099    1.0481845    1.0029284     9371.781   0.73753324 
  176000   -5.7047679    1.5174532   -4.1873148   0.98403843    1.0117818     9371.781   0.73753324 
  177000   -5.6807763    1.5069772   -4.1737991    1.0255974    1.0047969     9371.781   0.73753324 
  178000   -5.6965906    1.5177162   -4.1788744     1.060083    1.0119572     9371.781   0.73753324 
  179000   -5.6960655    1.5161239   -4.1799417   0.93330318    1.0108955     9371.781   0.73753324 
  180000    -5.675434    1.5071264   -4.1683075    1.0024813    1.0048963     9371.781   0.73753324 
  181000   -5.6754361    1.5357276   -4.1397085    1.0113192    1.0239665     9371.781   0.73753324 
  182000   -5.6996691    1.5228557   -4.1768134   0.93699908     1.015384     9371.781   0.73753324 
  183000   -5.6884377    1.5031734   -4.1852643   0.99487621    1.0022606     9371.781   0.73753324 
  184000   -5.6858582    1.4814461    -4.204412   0.99314063   0.98777364     9371.781   0.73753324 
  185000   -5.7101932     1.544704   -4.1654892   0.95545424    1.0299517     9371.781   0.73753324 
  186000   -5.6797838     1.513481   -4.1663028    1.0537582    1.0091333     9371.781   0.73753324 
  187000    -5.678888    1.4785501   -4.2003379    1.0303856   0.98584269     9371.781   0.73753324 
  188000   -5.7058953    1.4946238   -4.2112715   0.89852173   0.99656007     9371.781   0.73753324 
  189000   -5.7104089    1.4513818   -4.2590271   0.99508602   0.96772787     9371.781   0.73753324 
  190000   -5.6866621    1.5143109   -4.1723512    0.9981358    1.0096867     9371.781   0.73753324 
  191000   -5.6970984    1.4994414   -4.1976569   0.93728378   0.99977227     9371.781   0.73753324 
  192000   -5.7016384    1.5142632   -4.1873752    1.0012696    1.0096548     9371.781   0.73753324 
  193000   -5.6985627    1.5264208   -4.1721419    1.0501484    1.0177611     9371.781   0.73753324 
  194000    -5.702191    1.5049681   -4.1972229   0.96208373    1.0034572     9371.781   0.73753324 
  195000   -5.6832109    1.4762687   -4.2069422    1.0104745   0.98432152     9371.781   0.73753324 
  196000   -5.6908237    1.4812801   -4.2095436   0.93952044   0.98766298     9371.781   0.73753324 
  197000   -5.7002052     1.505421   -4.1947841    1.0151107    1.0037592     9371.781   0.73753324 
  198000   -5.6935842    1.5169687   -4.1766155   0.99990672    1.0114588     9371.781   0.73753324 
  199000   -5.6784665    1.5050121   -4.1734543     1.053242    1.0034866     9371.781   0.73753324 
  200000   -5.6764794    1.5144268   -4.1620526   0.97754294    1.0097639     9371.781   0.73753324 
  201000   -5.6914776    1.5164504   -4.1750272    1.0589625    1.0111132     9371.781   0.73753324 
  202000   -5.6999596    1.5055866   -4.1943729    1.0339484    1.0038697     9371.781   0.73753324 
  203000   -5.7043787    1.5024571   -4.2019217    1.0148411     1.001783     9371.781   0.73753324 
  204000   -5.7083251    1.5122061   -4.1961189   0.97034518    1.0082833     9371.781   0.73753324 
  205000   -5.6960755     1.506191   -4.1898845    1.0160226    1.0042726     9371.781   0.73753324 
  206000     -5.70932    1.4962582   -4.2130618    1.0219749   0.99764981     9371.781   0.73753324 
  207000   -5.6832943    1.4890596   -4.1942347    1.0170645   0.99285003     9371.781   0.73753324 
  208000   -5.6776556    1.5066376    -4.171018    1.0105206    1.0045704     9371.781   0.73753324 
  209000   -5.6837333    1.4923988   -4.1913345    1.0425592    0.9950765     9371.781   0.73753324 
  210000   -5.6854276    1.4885858   -4.1968418   0.96220996    0.9925341     9371.781   0.73753324 
  211000   -5.7042789    1.4847119    -4.219567   0.93525684   0.98995117     9371.781   0.73753324 
  212000   -5.7052529    1.4793702   -4.2258827   0.88358933    0.9863895     9371.781   0.73753324 
  213000   -5.7034879    1.4906974   -4.2127905   0.96786904   0.99394205     9371.781   0.73753324 
  214000   -5.7002866    1.4991497   -4.2011369   0.97549002   0.99957773     9371.781   0.73753324 
  215000   -5.6862263    1.4868006   -4.1994257   0.97463516   0.99134381     9371.781   0.73753324 
  216000   -5.7010278    1.5101972   -4.1908305   0.92957595    1.0069438     9371.781   0.73753324 
  217000   -5.6665641     1.524933   -4.1416311    1.0349735    1.0167691     9371.781   0.73753324 
  218000    -5.671993    1.5016559    -4.170337    1.0659244    1.0012488     9371.781   0.73753324 
  219000   -5.6924898    1.5140674   -4.1784224   0.96789503    1.0095243     9371.781   0.73753324 
  220000   -5.6975944    1.5109367   -4.1866577    1.0078373    1.0074369     9371.781   0.73753324 
  221000   -5.6895689    1.5069777   -4.1825913    1.0205327    1.0047972     9371.781   0.73753324 
  222000   -5.6859055    1.4859384   -4.1999672    1.0651054   0.99076891     9371.781   0.73753324 
  223000   -5.6854015    1.4799323   -4.2054693   0.99203444   0.98676426     9371.781   0.73753324 
  224000   -5.6839258    1.4866149   -4.1973109    1.0690558   0.99121999     9371.781   0.73753324 
  225000    -5.680005    1.4865292   -4.1934758    1.0374911   0.99116285     9371.781   0.73753324 
  226000   -5.7032486     1.494745   -4.2085036   0.95677829   0.99664087     9371.781   0.73753324 
  227000    -5.701634    1.4950307   -4.2066033   0.98394559   0.99683136     9371.781   0.73753324 
  228000   -5.6782917    1.5106157    -4.167676    1.0063702    1.0072229     9371.781   0.73753324 
  229000   -5.6797979    1.5158796   -4.1639184    1.0650751    1.0107326     9371.781   0.73753324 
  230000    -5.698333    1.5164942   -4.1818388    1.0346806    1.0111424     9371.781   0.73753324 
  231000   -5.6959453    1.5113526   -4.1845927   0.96690986    1.0077142     9371.781   0.73753324 
  232000   -5.6997936    1.5151009   -4.1846927    0.9476179    1.0102134     9371.781   0.73753324 
  233000   -5.6977767    1.5139714   -4.1838053   0.98224391    1.0094603     9371.781   0.73753324 
  234000   -5.7085863    1.5107074   -4.1978789    0.9611614     1.007284     9371.781   0.73753324 
  235000   -5.6965053    1.5167861   -4.1797192    1.0146464     1.011337     9371.781   0.73753324 
  236000   -5.6893118    1.5193402   -4.1699716    1.0518097      1.01304     9371.781   0.73753324 
  237000   -5.6833072    1.5050172   -4.1782901    1.0770479      1.00349     9371.781   0.73753324 
  238000    -5.699494    1.4894258   -4.2100682    0.9769638   0.99309421     9371.781   0.73753324 
  239000   -5.6935506     1.472836   -4.2207145    0.9377764   0.98203277     9371.781   0.73753324 
  240000   -5.6728245    1.4677953   -4.2050293    1.0013096   0.97867176     9371.781   0.73753324 
  241000   -5.6939327    1.4861023   -4.2078304   0.97172028    0.9908782     9371.781   0.73753324 
  242000   -5.6923502    1.4955514   -4.1967988   0.94924334   0.99717852     9371.781   0.73753324 
  243000   -5.6991959     1.512195   -4.1870009    1.0049296    1.0082758     9371.781   0.73753324 
  244000   -5.6861373    1.5204517   -4.1656855    1.0166594    1.0137812     9371.781   0.73753324 
  245000   -5.6790593    1.4935438   -4.1855155    1.0615264   0.99583997     9371.781   0.73753324 
  246000     -5.71163    1.5231113   -4.1885187   0.99205442    1.0155545     9371.781   0.73753324 
  247000   -5.6979747    1.4965926   -4.2013821   0.99524842    0.9978728     9371.781   0.73753324 
  248000   -5.6853482    1.4871963   -4.1981519   0.95093132   0.99160765     9371.781   0.73753324 
  249000   -5.6931782    1.4905713   -4.2026069   0.98722401   0.99385797     9371.781   0.73753324 
  250000   -5.6847677    1.4787649   -4.2060028    1.0046128   0.98598594     9371.781   0.73753324 
Loop time of 1172.38 on 2 procs for 200000 steps with 6912 atoms

Performance: 73696.215 tau/day, 170.593 timesteps/s
99.3% CPU use with 2 MPI tasks x no OpenMP threads

MPI task timing breakdown:
Section |  min time  |  avg time  |  max time  |%varavg| %total
---------------------------------------------------------------
Pair    | 985.69     | 1004.7     | 1023.6     |  59.9 | 85.69
Neigh   | 105.89     | 106.34     | 106.79     |   4.4 |  9.07
Comm    | 23.372     | 42.981     | 62.591     | 299.1 |  3.67
Output  | 0.66276    | 0.66378    | 0.6648     |   0.1 |  0.06
Modify  | 14.708     | 14.735     | 14.761     |   0.7 |  1.26
Other   |            | 3          |            |       |  0.26

Nlocal:    3456 ave 3503 max 3409 min
Histogram: 1 0 0 0 0 0 0 0 0 1
Nghost:    7507.5 ave 7564 max 7451 min
Histogram: 1 0 0 0 0 0 0 0 0 1
Neighs:    292008 ave 297471 max 286546 min
Histogram: 1 0 0 0 0 0 0 0 0 1

Total # of neighbors = 584017
Ave neighs/atom = 84.4932
Neighbor list builds = 10000
Dangerous builds not checked
unfix       intnvt
uncompute   rdfnvt
unfix       rdfnvt
undump      idnvt

next      a
jump      in.melt epsloop
variable    a loop 10   #loop parameter defined
variable    eps equal 0.5+($a-1)*0.5
variable    eps equal 0.5+(8-1)*0.5
if "${eps} > 2" then "variable eps equal 2.0+($a-4)*2.0" #epsilon value will increase at rate of 0.5 from 0.5 till 2.0
variable eps equal 2.0+($a-4)*2.0
variable eps equal 2.0+(8-4)*2.0


#Seeting the pair coefficient for all types of interaction
pair_coeff	1 1 10.0 1.0 3.5  # epsilon sigma and rcut is defined repectively
pair_coeff	1 2 ${eps} 1.0 3.5
pair_coeff	1 2 10 1.0 3.5
pair_coeff	2 2 0.8 1.0 3.5 # Use epsilon(nanoparticle)=10.0


minimize  1.0e-4 1.0e-6 100 1000
WARNING: Using 'neigh_modify every 1 delay 0 check yes' setting during minimization (../min.cpp:190)
Neighbor list info ...
  update every 1 steps, delay 0 steps, check yes
  max neighbors/atom: 2000, page size: 100000
  master list distance cutoff = 3.8
  ghost atom cutoff = 3.8
  binsize = 1.9, bins = 12 12 12
  1 neighbor lists, perpetual/occasional/extra = 1 0 0
  (1) pair lj/cut, perpetual
      attributes: half, newton on
      pair build: half/bin/atomonly/newton
      stencil: half/bin/3d/newton
      bin: standard
Per MPI rank memory allocation (min/avg/max) = 5.418 | 5.609 | 5.799 Mbytes
Step PotEng KinEng TotEng Press Temp Volume Density 
  250000   -5.8975229    1.4787649    -4.418758   0.93821029   0.98598594     9371.781   0.73753324 
  250100   -7.0552169    1.4787649    -5.576452   -1.5078243   0.98598594     9371.781   0.73753324 
Loop time of 2.04043 on 2 procs for 100 steps with 6912 atoms

99.7% CPU use with 2 MPI tasks x no OpenMP threads

Minimization stats:
  Stopping criterion = max iterations
  Energy initial, next-to-last, final = 
        -5.89752294711     -7.05161150418     -7.05521689719
  Force two-norm initial, final = 2500.84 257.135
  Force max component initial, final = 220.524 34.842
  Final line search alpha, max atom move = 0.00209503 0.0729951
  Iterations, force evaluations = 100 195

MPI task timing breakdown:
Section |  min time  |  avg time  |  max time  |%varavg| %total
---------------------------------------------------------------
Pair    | 1.6273     | 1.6736     | 1.7198     |   3.6 | 82.02
Neigh   | 0.24646    | 0.25537    | 0.26428    |   1.8 | 12.52
Comm    | 0.029575   | 0.084589   | 0.1396     |  18.9 |  4.15
Output  | 4.5333e-05 | 5.0449e-05 | 5.5564e-05 |   0.0 |  0.00
Modify  | 0          | 0          | 0          |   0.0 |  0.00
Other   |            | 0.02684    |            |       |  1.32

Nlocal:    3456 ave 3537 max 3375 min
Histogram: 1 0 0 0 0 0 0 0 0 1
Nghost:    7493 ave 7608 max 7378 min
Histogram: 1 0 0 0 0 0 0 0 0 1
Neighs:    293316 ave 303474 max 283157 min
Histogram: 1 0 0 0 0 0 0 0 0 1

Total # of neighbors = 586631
Ave neighs/atom = 84.8714
Neighbor list builds = 23
Dangerous builds not checked

neighbor	0.3 bin   #skin factor is taken to 0.3
neigh_modify	every 20 delay 0 check no
timestep 0.005
variable nthermo equal 1000
variable temp equal 1.0
variable tdamp equal 1.0
variable pext equal 1.0
variable pdamp equal 10.0
variable Nevery equal 1000
variable Nfreq equal 100000
variable Nrepeat equal 100
reset_timestep 0

#Using Npt to Calculate the rdf

fix 		intnpt all npt temp ${temp} ${temp} ${tdamp} iso ${pext} ${pext} ${pdamp}
fix 		intnpt all npt temp 1 ${temp} ${tdamp} iso ${pext} ${pext} ${pdamp}
fix 		intnpt all npt temp 1 1 ${tdamp} iso ${pext} ${pext} ${pdamp}
fix 		intnpt all npt temp 1 1 1 iso ${pext} ${pext} ${pdamp}
fix 		intnpt all npt temp 1 1 1 iso 1 ${pext} ${pdamp}
fix 		intnpt all npt temp 1 1 1 iso 1 1 ${pdamp}
fix 		intnpt all npt temp 1 1 1 iso 1 1 10
dump		id all atom 1000 out.dump.npt.${eps}.lammpstrj
dump		id all atom 1000 out.dump.npt.10.lammpstrj
thermo		${nthermo}
thermo		1000
thermo_style custom step pe ke etotal press temp vol density
restart 25000 restartnpt1.data restartnpt2.data
run		  50000
Per MPI rank memory allocation (min/avg/max) = 4.928 | 5.119 | 5.309 Mbytes
Step PotEng KinEng TotEng Press Temp Volume Density 
       0   -7.0552169    1.4787649    -5.576452   -1.5078243   0.98598594     9371.781   0.73753324 
    1000   -6.2139445    1.4440063   -4.7699381    1.5828917   0.96281018    8694.4564   0.79498932 
    2000   -5.9618153     1.488257   -4.4735583    1.1340294   0.99231489    9233.2091   0.74860213 
    3000    -5.932294    1.5067155   -4.4255786    1.0133811    1.0046223    9372.7557   0.73745654 
    4000   -5.9219407    1.4825518   -4.4393889   0.96891679   0.98851088    9363.1434   0.73821362 
    5000    -5.930549    1.4994975   -4.4310515   0.92553817   0.99980964    9368.1279   0.73782084 
    6000   -5.9323522    1.5064736   -4.4258786   0.95868147     1.004461    9370.4211   0.73764028 
    7000   -5.9482223    1.5176762   -4.4305461    1.0209773    1.0119306    9318.2236   0.74177229 
    8000   -5.9251028    1.5135195   -4.4115834    1.0734154     1.009159    9349.1111   0.73932162 
    9000   -5.9038066    1.4949335   -4.4088731     1.094424   0.99676657    9365.3575    0.7380391 
   10000    -5.933961    1.5043777   -4.4295834   0.97336553    1.0030636    9340.9266   0.73996941 
   11000    -5.955339    1.5088819   -4.4464571    0.9943681    1.0060668    9309.7722   0.74244566 
   12000   -5.9134409    1.4846593   -4.4287816   0.99766184   0.98991607    9374.9336   0.73728523 
   13000   -5.9404057    1.4890983   -4.4513074   0.92418912   0.99287582    9361.0664   0.73837741 
   14000   -5.9189506    1.4857348   -4.4332158    1.0206799   0.99063319    9384.5424   0.73653032 
   15000   -5.9167941    1.4947241     -4.42207    1.0468661   0.99662694    9365.7597    0.7380074 
   16000   -5.9223132    1.5130683   -4.4092449    1.0498698    1.0088582    9359.8461   0.73847368 
   17000   -5.9237439    1.5331953   -4.3905485   0.96991305    1.0222781    9412.0598   0.73437698 
   18000   -5.9600351    1.4926568   -4.4673783   0.92207097   0.99524855    9324.6141   0.74126392 
   19000   -5.9617898    1.4977001   -4.4640897   0.91460996    0.9986112     9297.481   0.74342717 
   20000   -5.9015156    1.5084117   -4.3931039    1.0203909    1.0057533    9404.3646   0.73497789 
   21000   -5.9352249    1.5287151   -4.4065098    1.0281263    1.0192909    9340.1175   0.74003351 
   22000   -5.9148107    1.5131236   -4.4016871    1.0241058     1.008895    9362.2353   0.73828523 
   23000   -5.9097214    1.5143202   -4.3954012    1.0651332    1.0096929    9330.7104   0.74077961 
   24000   -5.9187007    1.5057475   -4.4129532    1.0896184    1.0039769    9334.2067   0.74050213 
   25000    -5.931532    1.5065527   -4.4249793     1.048473    1.0045138    9309.4466   0.74247163 
   26000   -5.9307275    1.5114522   -4.4192753   0.85901454    1.0077806    9375.2384   0.73726125 
   27000   -5.9193707    1.4997942   -4.4195765    1.0262507    1.0000075      9395.24   0.73569169 
   28000   -5.9322183    1.4626675   -4.4695508    1.0739909   0.97525276    9310.1408   0.74241627 
   29000   -5.9150688    1.4987758    -4.416293    0.9762668   0.99932842    9388.6526   0.73620788 
   30000   -5.9311876    1.5022785   -4.4289091    1.0309893    1.0016639    9343.5692   0.73976014 
   31000   -5.9473424    1.5171267   -4.4302157    1.0535739    1.0115642    9313.1771   0.74217423 
   32000   -5.9354052    1.5053143    -4.430091    1.0482534    1.0036881    9308.5169   0.74254578 
   33000   -5.9313675    1.5047203   -4.4266473   0.88562312     1.003292    9360.1785   0.73844745 
   34000    -5.915223    1.4914617   -4.4237613    0.9725683   0.99445164     9371.374   0.73756527 
   35000   -5.9097152    1.4868024   -4.4229129    1.0036573   0.99134499    9361.4399   0.73834796 
   36000   -5.9596248    1.4872587   -4.4723661    1.0316998   0.99164924    9281.1345   0.74473654 
   37000    -5.889963    1.4987831   -4.3911799   0.97301227   0.99933331    9433.5004   0.73270787 
   38000   -5.9352483    1.4953705   -4.4398778    1.0573917   0.99705792    9304.6457   0.74285472 
   39000   -5.9130788    1.4955911   -4.4174877    1.1419874   0.99720502    9338.0273   0.74019917 
   40000   -5.9224913    1.5095892   -4.4129021    1.0903676    1.0065384    9333.0309   0.74059542 
   41000   -5.9103705    1.5021678   -4.4082027    1.0015844    1.0015901    9356.0318   0.73877475 
   42000   -5.9110224    1.5072398   -4.4037827    1.0247483    1.0049719    9359.4183   0.73850744 
   43000   -5.9282173     1.511095   -4.4171223    1.0649817    1.0075424    9359.2331   0.73852205 
   44000   -5.9316429     1.509783   -4.4218598    1.0814084    1.0066677    9324.7683   0.74125166 
   45000   -5.9513334    1.5208536   -4.4304798    1.0141579    1.0140491    9330.2473   0.74081638 
   46000   -5.9347903    1.5074477   -4.4273426   0.96300645    1.0051106    9354.3852   0.73890478 
   47000   -5.9267749    1.4952992   -4.4314757    1.0658136   0.99701038    9338.8653   0.74013275 
   48000   -5.9463228    1.4997635   -4.4465593    1.0055406   0.99998698    9312.3565   0.74223963 
   49000   -5.9434038    1.5169303   -4.4264735    1.0148942    1.0114332    9342.5217   0.73984308 
   50000    -5.917748    1.4813655   -4.4363825   0.98751271   0.98771989    9346.7957   0.73950477 
Loop time of 438.983 on 2 procs for 50000 steps with 6912 atoms

Performance: 49204.600 tau/day, 113.900 timesteps/s
99.4% CPU use with 2 MPI tasks x no OpenMP threads

MPI task timing breakdown:
Section |  min time  |  avg time  |  max time  |%varavg| %total
---------------------------------------------------------------
Pair    | 371.28     | 373.86     | 376.45     |  13.4 | 85.17
Neigh   | 38.629     | 39.299     | 39.97      |  10.7 |  8.95
Comm    | 9.7203     | 13.059     | 16.397     |  92.4 |  2.97
Output  | 0.25094    | 0.25126    | 0.25158    |   0.1 |  0.06
Modify  | 11.392     | 11.478     | 11.565     |   2.5 |  2.61
Other   |            | 1.032      |            |       |  0.23

Nlocal:    3456 ave 3457 max 3455 min
Histogram: 1 0 0 0 0 0 0 0 0 1
Nghost:    7487 ave 7497 max 7477 min
Histogram: 1 0 0 0 0 0 0 0 0 1
Neighs:    292888 ave 294382 max 291395 min
Histogram: 1 0 0 0 0 0 0 0 0 1

Total # of neighbors = 585777
Ave neighs/atom = 84.7478
Neighbor list builds = 2500
Dangerous builds not checked
unfix   intnpt
undump  id


#Using Nvt to calculate the rdf

fix         intnvt all nvt temp ${temp} ${temp} ${tdamp}
fix         intnvt all nvt temp 1 ${temp} ${tdamp}
fix         intnvt all nvt temp 1 1 ${tdamp}
fix         intnvt all nvt temp 1 1 1
compute     rdfnvt all rdf 100 1 1 1 2 2 2
fix         rdfnvt all ave/time ${Nevery} ${Nrepeat} ${Nfreq} c_rdfnvt[*] file systemnvt.rdf.${eps} mode vector ave window 2
fix         rdfnvt all ave/time 1000 ${Nrepeat} ${Nfreq} c_rdfnvt[*] file systemnvt.rdf.${eps} mode vector ave window 2
fix         rdfnvt all ave/time 1000 100 ${Nfreq} c_rdfnvt[*] file systemnvt.rdf.${eps} mode vector ave window 2
fix         rdfnvt all ave/time 1000 100 100000 c_rdfnvt[*] file systemnvt.rdf.${eps} mode vector ave window 2
fix         rdfnvt all ave/time 1000 100 100000 c_rdfnvt[*] file systemnvt.rdf.10 mode vector ave window 2
dump        idnvt all atom 1000 out.dump.nvt.${eps}.lammpstrj
dump        idnvt all atom 1000 out.dump.nvt.10.lammpstrj
thermo      ${nthermo}
thermo      1000
thermo_style custom step pe ke etotal press temp vol density
restart     100000 restartnvt1.data restartnvt2.data
run         200000
Neighbor list info ...
  update every 20 steps, delay 0 steps, check no
  max neighbors/atom: 2000, page size: 100000
  master list distance cutoff = 3.8
  ghost atom cutoff = 3.8
  binsize = 1.9, bins = 12 12 12
  2 neighbor lists, perpetual/occasional/extra = 1 1 0
  (1) pair lj/cut, perpetual
      attributes: half, newton on
      pair build: half/bin/atomonly/newton
      stencil: half/bin/3d/newton
      bin: standard
  (2) compute rdf, occasional, copy from (1)
      attributes: half, newton on
      pair build: copy
      stencil: none
      bin: none
Per MPI rank memory allocation (min/avg/max) = 4.925 | 5.115 | 5.306 Mbytes
Step PotEng KinEng TotEng Press Temp Volume Density 
   50000    -5.917748    1.4813655   -4.4363825   0.98751271   0.98771989    9346.7957   0.73950477 
   51000   -5.9359955    1.4856215   -4.4503741   0.98773622   0.99055762    9346.7957   0.73950477 
   52000   -5.9386073    1.4974532   -4.4411541   0.93993751   0.99844655    9346.7957   0.73950477 
   53000    -5.925691    1.4972316   -4.4284594   0.96758185   0.99829885    9346.7957   0.73950477 
   54000   -5.9398727    1.5001557    -4.439717   0.98024608    1.0002485    9346.7957   0.73950477 
   55000   -5.9277331    1.4974648   -4.4302683    1.0133319   0.99845434    9346.7957   0.73950477 
   56000   -5.9358717    1.5187901   -4.4170816     1.063194    1.0126733    9346.7957   0.73950477 
   57000    -5.925251     1.495842    -4.429409    1.0542482   0.99737229    9346.7957   0.73950477 
   58000   -5.9319145    1.4887696   -4.4431448    1.0228962    0.9926567    9346.7957   0.73950477 
   59000   -5.9345762    1.4753039   -4.4592723    1.0540518   0.98367827    9346.7957   0.73950477 
   60000     -5.91848    1.4903359   -4.4281441    0.9126267   0.99370105    9346.7957   0.73950477 
   61000   -5.9237554    1.4863324    -4.437423   0.95261559   0.99103162    9346.7957   0.73950477 
   62000   -5.9426396    1.4970747   -4.4455649   0.97334458   0.99819422    9346.7957   0.73950477 
   63000   -5.9487897    1.4900178   -4.4587719   0.96812573   0.99348891    9346.7957   0.73950477 
   64000   -5.9250768    1.4900513   -4.4350255    1.0032626   0.99351129    9346.7957   0.73950477 
   65000   -5.9273057    1.5037714   -4.4235343     1.015374    1.0026593    9346.7957   0.73950477 
   66000   -5.9200483    1.5059739   -4.4140744    1.0882599    1.0041278    9346.7957   0.73950477 
   67000   -5.9231411    1.5153241    -4.407817    1.0477762    1.0103623    9346.7957   0.73950477 
   68000   -5.9213817      1.51986   -4.4015216   0.97620919    1.0133866    9346.7957   0.73950477 
   69000   -5.9123902    1.5094424   -4.4029478    1.1634231    1.0064405    9346.7957   0.73950477 
   70000   -5.9317337    1.5127178   -4.4190159   0.98160088    1.0086245    9346.7957   0.73950477 
   71000   -5.9118877    1.5008576   -4.4110301    1.0164397    1.0007165    9346.7957   0.73950477 
   72000   -5.9337281    1.5073596   -4.4263685   0.92064606    1.0050518    9346.7957   0.73950477 
   73000   -5.9329982    1.5067185   -4.4262796   0.98375192    1.0046244    9346.7957   0.73950477 
   74000   -5.9190661    1.4924826   -4.4265835    1.0680405   0.99513235    9346.7957   0.73950477 
   75000    -5.934967    1.5163641   -4.4186029    1.0198715    1.0110557    9346.7957   0.73950477 
   76000   -5.9148321    1.5077748   -4.4070573    1.1078747    1.0053286    9346.7957   0.73950477 
   77000   -5.9381129    1.4937453   -4.4443676   0.94060669   0.99597428    9346.7957   0.73950477 
   78000   -5.9271436     1.482972   -4.4441716    1.1339799   0.98879104    9346.7957   0.73950477 
   79000    -5.927141    1.4890948   -4.4380462   0.96700012   0.99287354    9346.7957   0.73950477 
   80000   -5.9175047    1.4835527    -4.433952    1.1155645   0.98917822    9346.7957   0.73950477 
   81000    -5.939805    1.4930857   -4.4467193   0.98699734   0.99553451    9346.7957   0.73950477 
   82000   -5.9372648    1.4871516   -4.4501132    1.0513486   0.99157784    9346.7957   0.73950477 
   83000    -5.940999    1.4824679    -4.458531   0.93733137   0.98845496    9346.7957   0.73950477 
   84000   -5.9318531    1.4771437   -4.4547094    1.0001693   0.98490495    9346.7957   0.73950477 
   85000   -5.9285483    1.4759196   -4.4526288   0.88179664   0.98408874    9346.7957   0.73950477 
   86000   -5.9301612    1.4901755   -4.4399856    1.0026797   0.99359411    9346.7957   0.73950477 
   87000   -5.9285367    1.4923651   -4.4361715    1.0561857   0.99505406    9346.7957   0.73950477 
   88000   -5.9243778    1.4946092   -4.4297686    1.1158367   0.99655031    9346.7957   0.73950477 
   89000   -5.9314973    1.4973362   -4.4341611     1.011197   0.99836859    9346.7957   0.73950477 
   90000   -5.9265858    1.5280128    -4.398573    1.0437023    1.0188226    9346.7957   0.73950477 
   91000   -5.9200846    1.5001796    -4.419905    1.0545887    1.0002644    9346.7957   0.73950477 
   92000   -5.9237583    1.4993315   -4.4244268    1.0484306   0.99969899    9346.7957   0.73950477 
   93000    -5.921561    1.5036158   -4.4179452    1.0143428    1.0025556    9346.7957   0.73950477 
   94000   -5.9229443    1.4957132    -4.427231    1.0520577   0.99728645    9346.7957   0.73950477 
   95000   -5.9269732    1.5224996   -4.4044736    1.0277898    1.0151466    9346.7957   0.73950477 
   96000   -5.9317838    1.5102627   -4.4215211    1.0671664    1.0069875    9346.7957   0.73950477 
   97000   -5.9369856    1.4862428   -4.4507428    1.0046339   0.99097188    9346.7957   0.73950477 
   98000   -5.9460824    1.4916903   -4.4543922   0.93369887   0.99460406    9346.7957   0.73950477 
   99000   -5.9492073    1.4694155   -4.4797917   0.84121192   0.97975209    9346.7957   0.73950477 
  100000   -5.9190123    1.4689316   -4.4500807   0.97905159   0.97942946    9346.7957   0.73950477 
  101000   -5.9280244    1.4879657   -4.4400587    1.0153337   0.99212067    9346.7957   0.73950477 
  102000    -5.935171    1.4972118   -4.4379593   0.95551471   0.99828561    9346.7957   0.73950477 
  103000   -5.9265739     1.506922   -4.4196519   0.97719468      1.00476    9346.7957   0.73950477 
  104000   -5.9145117    1.4987229   -4.4157889     1.075644   0.99929315    9346.7957   0.73950477 
  105000   -5.9388473    1.5146205   -4.4242269      0.95586    1.0098931    9346.7957   0.73950477 
  106000    -5.930358    1.5285391   -4.4018188   0.99409848    1.0191735    9346.7957   0.73950477 
  107000   -5.9326212    1.5050457   -4.4275754    1.0355056     1.003509    9346.7957   0.73950477 
  108000   -5.9325001    1.5129626   -4.4195375    1.0289754    1.0087877    9346.7957   0.73950477 
  109000   -5.9235377    1.4862274   -4.4373103    1.0406252   0.99096164    9346.7957   0.73950477 
  110000   -5.9333789    1.4893289   -4.4440501   0.98542728   0.99302957    9346.7957   0.73950477 
  111000   -5.9292156    1.4859761   -4.4432395    1.0035621   0.99079408    9346.7957   0.73950477 
  112000   -5.9486125    1.4980263   -4.4505862    1.0070563    0.9988287    9346.7957   0.73950477 
  113000   -5.9405022    1.4791426   -4.4613596   0.92504004   0.98623773    9346.7957   0.73950477 
  114000   -5.9424409    1.4923326   -4.4501082   0.92512328   0.99503239    9346.7957   0.73950477 
  115000   -5.9264001    1.5014201     -4.42498    1.1259969    1.0010915    9346.7957   0.73950477 
  116000   -5.9249452    1.5164295   -4.4085157    1.1111912    1.0110993    9346.7957   0.73950477 
  117000    -5.923278    1.4952103   -4.4280676    1.0284001   0.99695113    9346.7957   0.73950477 
  118000   -5.9367084     1.508758   -4.4279504    1.0229272    1.0059842    9346.7957   0.73950477 
  119000   -5.9203701    1.4861251   -4.4342449    1.1133513   0.99089345    9346.7957   0.73950477 
  120000    -5.925499    1.4953879   -4.4301112    1.0351476   0.99706949    9346.7957   0.73950477 
  121000   -5.9310705    1.4941805     -4.43689    1.0370573   0.99626447    9346.7957   0.73950477 
  122000   -5.9407353     1.503308   -4.4374273   0.90557356    1.0023503    9346.7957   0.73950477 
  123000   -5.9529327    1.5059307   -4.4470021   0.88227066     1.004099    9346.7957   0.73950477 
  124000   -5.9321053     1.472183   -4.4599223    1.0495285   0.98159738    9346.7957   0.73950477 
  125000   -5.9359292    1.5220731    -4.413856   0.99387744    1.0148622    9346.7957   0.73950477 
  126000   -5.9440467    1.5146877    -4.429359   0.97220077    1.0099379    9346.7957   0.73950477 
  127000   -5.9253549    1.4844648   -4.4408901    1.0519483   0.98978639    9346.7957   0.73950477 
  128000   -5.9391029    1.4806301   -4.4584728   0.98579965   0.98722956    9346.7957   0.73950477 
  129000   -5.9453643     1.483115   -4.4622493   0.96506807    0.9888864    9346.7957   0.73950477 
  130000     -5.93404    1.4817717   -4.4522683    1.0295691   0.98799071    9346.7957   0.73950477 
  131000   -5.9328462    1.4904149   -4.4424312   0.94932816   0.99375372    9346.7957   0.73950477 
  132000   -5.9453987    1.5031132   -4.4422855   0.93837218    1.0022205    9346.7957   0.73950477 
  133000   -5.9391827    1.4755051   -4.4636775    0.9091547   0.98381242    9346.7957   0.73950477 
  134000   -5.9366345    1.4780726   -4.4585619   0.89840717   0.98552431    9346.7957   0.73950477 
  135000   -5.9434198     1.513133   -4.4302868     0.954564    1.0089013    9346.7957   0.73950477 
  136000   -5.9291022    1.5039311    -4.425171     1.037772    1.0027658    9346.7957   0.73950477 
  137000   -5.9073199    1.5047525   -4.4025675    1.0942793    1.0033135    9346.7957   0.73950477 
  138000   -5.9239731    1.5256107   -4.3983624    1.0365439    1.0172209    9346.7957   0.73950477 
  139000   -5.9270538    1.5066263   -4.4204274    1.0116429    1.0045629    9346.7957   0.73950477 
  140000    -5.929305    1.5015605   -4.4277445   0.99044596    1.0011852    9346.7957   0.73950477 
  141000   -5.9520965    1.5186497   -4.4334468   0.95416141    1.0125796    9346.7957   0.73950477 
  142000   -5.9413127    1.5129138   -4.4283989    1.0047755    1.0087551    9346.7957   0.73950477 
  143000   -5.9383168    1.5145662   -4.4237506    1.0230067    1.0098569    9346.7957   0.73950477 
  144000   -5.9418628    1.5160694   -4.4257933    1.0151353    1.0108592    9346.7957   0.73950477 
  145000   -5.9333738    1.5274544   -4.4059194    1.0557917    1.0184503    9346.7957   0.73950477 
  146000   -5.9265645    1.5092365    -4.417328   0.98604463    1.0063032    9346.7957   0.73950477 
  147000   -5.9366208    1.5034955   -4.4331254   0.97259449    1.0024753    9346.7957   0.73950477 
  148000    -5.942984    1.5078956   -4.4350884   0.97004577    1.0054092    9346.7957   0.73950477 
  149000   -5.9244595    1.4835206   -4.4409388      1.03646   0.98915685    9346.7957   0.73950477 
  150000   -5.9271877    1.4899403   -4.4372474     1.019862   0.99343724    9346.7957   0.73950477 
  151000   -5.9443604    1.5087685   -4.4355919   0.90292946    1.0059912    9346.7957   0.73950477 
  152000   -5.9419102     1.484507   -4.4574032   0.96286615   0.98981451    9346.7957   0.73950477 
  153000   -5.9346567     1.487377   -4.4472798    1.0398148   0.99172812    9346.7957   0.73950477 
  154000   -5.9415546    1.5027264   -4.4388283   0.92257899    1.0019625    9346.7957   0.73950477 
  155000   -5.9308834    1.4976809   -4.4332025    1.0149572    0.9985984    9346.7957   0.73950477 
  156000   -5.9203979    1.5005604   -4.4198374    1.0020259    1.0005184    9346.7957   0.73950477 
  157000   -5.9389571    1.5295933   -4.4093637   0.96295381    1.0198764    9346.7957   0.73950477 
  158000   -5.9200398    1.5219476   -4.3980922    1.0689828    1.0147786    9346.7957   0.73950477 
  159000   -5.9349681    1.5305599   -4.4044082   0.99962786    1.0205209    9346.7957   0.73950477 
  160000   -5.9206773    1.5031272   -4.4175501    1.1115603    1.0022298    9346.7957   0.73950477 
  161000   -5.9262615    1.4979279   -4.4283337    1.0516394   0.99876308    9346.7957   0.73950477 
  162000    -5.937978    1.5147216   -4.4232564   0.96615385    1.0099605    9346.7957   0.73950477 
  163000   -5.9564182    1.4840532    -4.472365      0.89509   0.98951195    9346.7957   0.73950477 
  164000   -5.9224812    1.4711834   -4.4512978    1.0298452   0.98093087    9346.7957   0.73950477 
  165000   -5.9368803    1.4784237   -4.4584567    1.0160099    0.9857584    9346.7957   0.73950477 
  166000   -5.9523219    1.4859567   -4.4663652   0.86193443   0.99078114    9346.7957   0.73950477 
  167000   -5.9316014    1.4887935   -4.4428079   0.97927429    0.9926726    9346.7957   0.73950477 
  168000   -5.9171098    1.4789133   -4.4381965     1.064616   0.98608489    9346.7957   0.73950477 
  169000   -5.9265283     1.507436   -4.4190923    1.0162799    1.0051028    9346.7957   0.73950477 
  170000   -5.9349519    1.5280442   -4.4069077    1.0343927    1.0188435    9346.7957   0.73950477 
  171000   -5.9243801     1.515687   -4.4086932   0.99258029    1.0106042    9346.7957   0.73950477 
  172000   -5.9358276    1.4900791   -4.4457485    1.0050674   0.99352978    9346.7957   0.73950477 
  173000   -5.9422659    1.5015012   -4.4407647   0.97631107    1.0011456    9346.7957   0.73950477 
  174000   -5.9341984    1.4870638   -4.4471346   0.95380647   0.99151932    9346.7957   0.73950477 
  175000   -5.9462698    1.4898337   -4.4564361   0.96353472   0.99336618    9346.7957   0.73950477 
  176000    -5.928422    1.4772685   -4.4511535   0.97769158   0.98498815    9346.7957   0.73950477 
  177000   -5.9415761    1.4768692    -4.464707   0.96311575   0.98472191    9346.7957   0.73950477 
  178000   -5.9414832    1.4715952   -4.4698879   0.90343937   0.98120544    9346.7957   0.73950477 
  179000    -5.931504    1.4844437   -4.4470602    1.0293739   0.98977235    9346.7957   0.73950477 
  180000   -5.9363027     1.485029   -4.4512736   0.90371809   0.99016261    9346.7957   0.73950477 
  181000   -5.9454949    1.4614077   -4.4840873   0.96958229   0.97441275    9346.7957   0.73950477 
  182000   -5.9477204    1.4949077   -4.4528128   0.98445098   0.99674931    9346.7957   0.73950477 
  183000   -5.9231108    1.4804888    -4.442622    1.0006816   0.98713535    9346.7957   0.73950477 
  184000   -5.9385603    1.5065021   -4.4320582   0.98400666    1.0044801    9346.7957   0.73950477 
  185000   -5.9350298    1.4853433   -4.4496864   0.92783485   0.99037217    9346.7957   0.73950477 
  186000   -5.9233114    1.4651723   -4.4581391   0.93043977   0.97692285    9346.7957   0.73950477 
  187000   -5.9254556    1.4884655   -4.4369901   0.93414216   0.99245392    9346.7957   0.73950477 
  188000    -5.932775    1.4887788   -4.4439962     1.009923   0.99266282    9346.7957   0.73950477 
  189000   -5.9412472    1.5056194   -4.4356278    1.0322524    1.0038915    9346.7957   0.73950477 
  190000   -5.9101662    1.5018759   -4.4082903    1.0658328    1.0013955    9346.7957   0.73950477 
  191000   -5.9333656    1.4980468   -4.4353188    1.0280039   0.99884235    9346.7957   0.73950477 
  192000   -5.9279594    1.4910021   -4.4369573   0.95849859   0.99414526    9346.7957   0.73950477 
  193000   -5.9371451    1.5127296   -4.4244155   0.95590468    1.0086324    9346.7957   0.73950477 
  194000   -5.9248645    1.4894851   -4.4353794    1.0385851   0.99313375    9346.7957   0.73950477 
  195000   -5.9346267     1.494881   -4.4397457    1.0596742   0.99673152    9346.7957   0.73950477 
  196000   -5.9388393    1.5091273    -4.429712   0.98982346    1.0062304    9346.7957   0.73950477 
  197000   -5.9221927    1.4997272   -4.4224655   0.99095076    0.9999628    9346.7957   0.73950477 
  198000   -5.9353473    1.5086027   -4.4267446    1.0285749    1.0058807    9346.7957   0.73950477 
  199000   -5.9193887    1.5083117    -4.411077    1.0357998    1.0056866    9346.7957   0.73950477 
  200000   -5.9132387    1.5003666   -4.4128721    1.1396625    1.0003891    9346.7957   0.73950477 
  201000   -5.9166374    1.4938509   -4.4227865    1.1226621   0.99604472    9346.7957   0.73950477 
  202000   -5.9351744    1.5101424    -4.425032   0.98486269    1.0069073    9346.7957   0.73950477 
  203000   -5.9400587    1.5181585   -4.4219003   0.97839595    1.0122521    9346.7957   0.73950477 
  204000   -5.9238035    1.5175571   -4.4062464    0.9986451    1.0118511    9346.7957   0.73950477 
  205000   -5.9208048    1.5274495   -4.3933553   0.97985153     1.018447    9346.7957   0.73950477 
  206000   -5.9285059    1.5075632   -4.4209427    0.9505856    1.0051876    9346.7957   0.73950477 
  207000   -5.9218774    1.4883262   -4.4335512    1.0548344   0.99236107    9346.7957   0.73950477 
  208000   -5.9444586    1.5021401   -4.4423185   0.88761586    1.0015717    9346.7957   0.73950477 
  209000   -5.9332417    1.4874016     -4.44584   0.94495899   0.99174457    9346.7957   0.73950477 
  210000   -5.9292767    1.4961996   -4.4330771   0.91047039   0.99761071    9346.7957   0.73950477 
  211000   -5.9387949    1.4864391   -4.4523558   0.94888005   0.99110282    9346.7957   0.73950477 
  212000   -5.9493886    1.4682753   -4.4811133   0.88194019   0.97899184    9346.7957   0.73950477 
  213000   -5.9521327    1.5157742   -4.4363585    1.0413214    1.0106624    9346.7957   0.73950477 
  214000   -5.9215637    1.4940395   -4.4275242   0.97458305   0.99617043    9346.7957   0.73950477 
  215000   -5.9193267    1.5075259   -4.4118008    1.0481023    1.0051627    9346.7957   0.73950477 
  216000   -5.9202403    1.5112011   -4.4090393   0.98487088    1.0076131    9346.7957   0.73950477 
  217000   -5.9355441    1.5274032   -4.4081409    1.0427999    1.0184161    9346.7957   0.73950477 
  218000   -5.9488154    1.4946599   -4.4541555   0.92855201   0.99658412    9346.7957   0.73950477 
  219000    -5.942647    1.4999553   -4.4426917   0.99953682    1.0001149    9346.7957   0.73950477 
  220000   -5.9098691    1.5089301   -4.4009391    1.1001117    1.0060989    9346.7957   0.73950477 
  221000     -5.92051    1.5346312   -4.3858788    1.0134054    1.0232355    9346.7957   0.73950477 
  222000   -5.9161423     1.508169   -4.4079733    1.0550817    1.0055915    9346.7957   0.73950477 
  223000    -5.908848    1.4887302   -4.4201177    1.0364551   0.99263043    9346.7957   0.73950477 
  224000   -5.9374531     1.509189   -4.4282641    0.9643943    1.0062716    9346.7957   0.73950477 
  225000   -5.9317105    1.5124748   -4.4192358     1.064727    1.0084624    9346.7957   0.73950477 
  226000   -5.9150117    1.4824588   -4.4325528    1.1052841   0.98844889    9346.7957   0.73950477 
  227000   -5.9308472    1.5034907   -4.4273564    1.0463951    1.0024722    9346.7957   0.73950477 
  228000    -5.931002    1.5103322   -4.4206699    1.0440103    1.0070338    9346.7957   0.73950477 
  229000   -5.9303053    1.5231764   -4.4071289   0.99755456    1.0155979    9346.7957   0.73950477 
  230000   -5.9327217    1.5015081   -4.4312137    1.0042068    1.0011502    9346.7957   0.73950477 
  231000   -5.9172178    1.4948429   -4.4223749       1.0228   0.99670614    9346.7957   0.73950477 
  232000   -5.9297927    1.5111928      -4.4186     1.001703    1.0076076    9346.7957   0.73950477 
  233000   -5.9396297    1.5146598   -4.4249699   0.99432529    1.0099193    9346.7957   0.73950477 
  234000   -5.9387619    1.5045289   -4.4342329      1.07855    1.0031644    9346.7957   0.73950477 
  235000   -5.9534694    1.4848249   -4.4686445   0.84614926    0.9900265    9346.7957   0.73950477 
  236000   -5.9484785    1.4831577   -4.4653208   0.88014503   0.98891488    9346.7957   0.73950477 
  237000   -5.9228837    1.4762832   -4.4466005    1.0014873    0.9843312    9346.7957   0.73950477 
  238000    -5.919149    1.4729501   -4.4461989    1.0714881   0.98210885    9346.7957   0.73950477 
  239000   -5.9479082    1.4941408   -4.4537674   0.99908956   0.99623798    9346.7957   0.73950477 
  240000   -5.9270771    1.4909706   -4.4361065   0.98808826   0.99412424    9346.7957   0.73950477 
  241000   -5.9380889    1.5125921   -4.4254968    1.0449139    1.0085407    9346.7957   0.73950477 
  242000    -5.933918    1.4965251   -4.4373928    0.9601851   0.99782778    9346.7957   0.73950477 
  243000   -5.9233181    1.4983628   -4.4249553    1.0462184   0.99905304    9346.7957   0.73950477 
  244000   -5.9320447    1.4988612   -4.4331835      1.04154    0.9993854    9346.7957   0.73950477 
  245000   -5.9386221    1.4910673   -4.4475547    0.9882076   0.99418872    9346.7957   0.73950477 
  246000    -5.931506    1.4992238   -4.4322822   0.98113044   0.99962713    9346.7957   0.73950477 
  247000   -5.9369673    1.5029546   -4.4340128   0.97950112    1.0021147    9346.7957   0.73950477 
  248000   -5.9171441    1.4939767   -4.4231675    1.1524699   0.99612855    9346.7957   0.73950477 
  249000   -5.9186496    1.5074897     -4.41116    1.0869837    1.0051385    9346.7957   0.73950477 
  250000   -5.9120338    1.4984961   -4.4135377    1.0599348   0.99914194    9346.7957   0.73950477 
Loop time of 1789.65 on 2 procs for 200000 steps with 6912 atoms

Performance: 48277.501 tau/day, 111.753 timesteps/s
99.3% CPU use with 2 MPI tasks x no OpenMP threads

MPI task timing breakdown:
Section |  min time  |  avg time  |  max time  |%varavg| %total
---------------------------------------------------------------
Pair    | 1509.8     | 1535.2     | 1560.7     |  65.0 | 85.78
Neigh   | 161.85     | 162.12     | 162.39     |   2.1 |  9.06
Comm    | 38.158     | 64.115     | 90.071     | 324.2 |  3.58
Output  | 1.0375     | 1.0387     | 1.04       |   0.1 |  0.06
Modify  | 22.53      | 22.59      | 22.649     |   1.3 |  1.26
Other   |            | 4.553      |            |       |  0.25

Nlocal:    3456 ave 3471 max 3441 min
Histogram: 1 0 0 0 0 0 0 0 0 1
Nghost:    7378 ave 7394 max 7362 min
Histogram: 1 0 0 0 0 0 0 0 0 1
Neighs:    293166 ave 296724 max 289609 min
Histogram: 1 0 0 0 0 0 0 0 0 1

Total # of neighbors = 586333
Ave neighs/atom = 84.8283
Neighbor list builds = 10000
Dangerous builds not checked
unfix       intnvt
uncompute   rdfnvt
unfix       rdfnvt
undump      idnvt

next      a
jump      in.melt epsloop
variable    a loop 10   #loop parameter defined
variable    eps equal 0.5+($a-1)*0.5
variable    eps equal 0.5+(9-1)*0.5
if "${eps} > 2" then "variable eps equal 2.0+($a-4)*2.0" #epsilon value will increase at rate of 0.5 from 0.5 till 2.0
variable eps equal 2.0+($a-4)*2.0
variable eps equal 2.0+(9-4)*2.0


#Seeting the pair coefficient for all types of interaction
pair_coeff	1 1 10.0 1.0 3.5  # epsilon sigma and rcut is defined repectively
pair_coeff	1 2 ${eps} 1.0 3.5
pair_coeff	1 2 12 1.0 3.5
pair_coeff	2 2 0.8 1.0 3.5 # Use epsilon(nanoparticle)=10.0


minimize  1.0e-4 1.0e-6 100 1000
WARNING: Using 'neigh_modify every 1 delay 0 check yes' setting during minimization (../min.cpp:190)
Neighbor list info ...
  update every 1 steps, delay 0 steps, check yes
  max neighbors/atom: 2000, page size: 100000
  master list distance cutoff = 3.8
  ghost atom cutoff = 3.8
  binsize = 1.9, bins = 12 12 12
  1 neighbor lists, perpetual/occasional/extra = 1 0 0
  (1) pair lj/cut, perpetual
      attributes: half, newton on
      pair build: half/bin/atomonly/newton
      stencil: half/bin/3d/newton
      bin: standard
Per MPI rank memory allocation (min/avg/max) = 5.417 | 5.608 | 5.798 Mbytes
Step PotEng KinEng TotEng Press Temp Volume Density 
  250000   -6.1306588    1.4984961   -4.6321627   0.98905532   0.99914194    9346.7957   0.73950477 
  250100    -7.285434    1.4984961   -5.7869379   -1.5074861   0.99914194    9346.7957   0.73950477 
Loop time of 2.8542 on 2 procs for 100 steps with 6912 atoms

99.9% CPU use with 2 MPI tasks x no OpenMP threads

Minimization stats:
  Stopping criterion = max iterations
  Energy initial, next-to-last, final = 
        -6.13065875557      -7.2820127466     -7.28543396553
  Force two-norm initial, final = 2624 280.717
  Force max component initial, final = 204.365 46.2341
  Final line search alpha, max atom move = 0.00167524 0.0774534
  Iterations, force evaluations = 100 200

MPI task timing breakdown:
Section |  min time  |  avg time  |  max time  |%varavg| %total
---------------------------------------------------------------
Pair    | 2.3583     | 2.3891     | 2.4198     |   2.0 | 83.70
Neigh   | 0.35344    | 0.35357    | 0.35369    |   0.0 | 12.39
Comm    | 0.046114   | 0.076773   | 0.10743    |  11.1 |  2.69
Output  | 7.1324e-05 | 7.9473e-05 | 8.7622e-05 |   0.0 |  0.00
Modify  | 0          | 0          | 0          |   0.0 |  0.00
Other   |            | 0.0347     |            |       |  1.22

Nlocal:    3456 ave 3484 max 3428 min
Histogram: 1 0 0 0 0 0 0 0 0 1
Nghost:    7350 ave 7372 max 7328 min
Histogram: 1 0 0 0 0 0 0 0 0 1
Neighs:    294066 ave 297676 max 290457 min
Histogram: 1 0 0 0 0 0 0 0 0 1

Total # of neighbors = 588133
Ave neighs/atom = 85.0887
Neighbor list builds = 23
Dangerous builds not checked

neighbor	0.3 bin   #skin factor is taken to 0.3
neigh_modify	every 20 delay 0 check no
timestep 0.005
variable nthermo equal 1000
variable temp equal 1.0
variable tdamp equal 1.0
variable pext equal 1.0
variable pdamp equal 10.0
variable Nevery equal 1000
variable Nfreq equal 100000
variable Nrepeat equal 100
reset_timestep 0

#Using Npt to Calculate the rdf

fix 		intnpt all npt temp ${temp} ${temp} ${tdamp} iso ${pext} ${pext} ${pdamp}
fix 		intnpt all npt temp 1 ${temp} ${tdamp} iso ${pext} ${pext} ${pdamp}
fix 		intnpt all npt temp 1 1 ${tdamp} iso ${pext} ${pext} ${pdamp}
fix 		intnpt all npt temp 1 1 1 iso ${pext} ${pext} ${pdamp}
fix 		intnpt all npt temp 1 1 1 iso 1 ${pext} ${pdamp}
fix 		intnpt all npt temp 1 1 1 iso 1 1 ${pdamp}
fix 		intnpt all npt temp 1 1 1 iso 1 1 10
dump		id all atom 1000 out.dump.npt.${eps}.lammpstrj
dump		id all atom 1000 out.dump.npt.12.lammpstrj
thermo		${nthermo}
thermo		1000
thermo_style custom step pe ke etotal press temp vol density
restart 25000 restartnpt1.data restartnpt2.data
run		  50000
Per MPI rank memory allocation (min/avg/max) = 4.925 | 5.116 | 5.306 Mbytes
Step PotEng KinEng TotEng Press Temp Volume Density 
       0    -7.285434    1.4984961   -5.7869379   -1.5074861   0.99914194    9346.7957   0.73950477 
    1000   -6.4578172    1.4696655   -4.9881518    1.4187707   0.97991876    8698.6803   0.79460329 
    2000   -6.2144077    1.5119416   -4.7024661    1.0854174    1.0081069    9231.1083   0.74877249 
    3000   -6.1742642    1.5058881   -4.6683761   0.87155796    1.0040707    9338.0956   0.74019375 
    4000   -6.1696034    1.4902814    -4.679322    1.0447157   0.99366467    9334.1611   0.74050576 
    5000    -6.183649    1.4985955   -4.6850535   0.96589741   0.99920824    9328.1201   0.74098531 
    6000   -6.1702767    1.4955439   -4.6747328   0.94494375   0.99717353    9347.0353   0.73948582 
    7000   -6.1953969    1.5136745   -4.6817224   0.92458623    1.0092623    9316.1096   0.74194061 
    8000   -6.1460079    1.4873757   -4.6586322   0.99473779   0.99172731    9355.1242   0.73884642 
    9000   -6.1566457    1.4936195   -4.6630262   0.95572464   0.99589044    9341.7364   0.73990527 
   10000   -6.1732854     1.494141   -4.6791444   0.95018555   0.99623811    9320.9504   0.74155528 
   11000   -6.1672216    1.5024495   -4.6647721   0.99078112     1.001778    9328.9428   0.74091997 
   12000   -6.1743363    1.5214278   -4.6529085    1.1033533     1.014432    9326.8638   0.74108512 
   13000   -6.1734262    1.5044069   -4.6690192    1.0469327    1.0030831    9310.8389   0.74236061 
   14000   -6.1656353    1.5172219   -4.6484134   0.99426382    1.0116276    9325.3127   0.74120839 
   15000   -6.1659865    1.5198317   -4.6461548   0.98022547    1.0133678    9352.1414   0.73908206 
   16000   -6.1946184    1.5119964    -4.682622     1.020193    1.0081434    9293.8494   0.74371766 
   17000   -6.1525889    1.4904412   -4.6621477    1.0080023   0.99377122    9361.3086   0.73835831 
   18000    -6.181259    1.4965454   -4.6847136    1.0372989   0.99784132    9283.5688   0.74454126 
   19000   -6.1542609    1.4865399    -4.667721    1.0447498   0.99116998    9350.8016   0.73918797 
   20000   -6.1890047     1.488314   -4.7006908    1.0226642   0.99235288     9287.805   0.74420167 
   21000   -6.1562767    1.4781327    -4.678144    1.0616014   0.98556439    9327.5337    0.7410319 
   22000   -6.2066857    1.5087116   -4.6979741    1.1354061    1.0059533    9241.3499   0.74794268 
   23000   -6.1603753    1.5076241   -4.6527513    1.0562038    1.0052281    9361.4371   0.73834818 
   24000   -6.1597999     1.493509   -4.6662909   0.90786307   0.99581671    9392.1535   0.73593345 
   25000   -6.2262222    1.5066451   -4.7195771    1.0455033    1.0045754    9232.7183   0.74864193 
   26000   -6.1840536    1.4991563   -4.6848973   0.96090165   0.99958212    9314.6988   0.74205298 
   27000    -6.156081    1.4765411     -4.67954   0.95068369   0.98450314    9364.9581   0.73807057 
   28000   -6.1761429    1.4793147   -4.6968282    1.0064958   0.98635252    9305.1807   0.74281201 
   29000    -6.137086    1.5057617   -4.6313243    1.2058438    1.0039864    9387.9353   0.73626413 
   30000   -6.1478101    1.5349967   -4.6128134    0.9926175    1.0234792     9364.391   0.73811527 
   31000    -6.192797    1.5018202   -4.6909768   0.96835577    1.0013583    9304.1609   0.74289343 
   32000   -6.1739135    1.5031273   -4.6707862   0.94935294    1.0022299    9344.6838    0.7396719 
   33000   -6.1942064    1.4999296   -4.6942768   0.91854808    1.0000977    9309.9119   0.74243453 
   34000   -6.1517874    1.4885409   -4.6632465    1.0019347   0.99250418    9374.9385   0.73728483 
   35000   -6.1695425    1.4978591   -4.6716834    0.9967349   0.99871721    9364.1164   0.73813691 
   36000   -6.1821423    1.5019911   -4.6801512   0.98138579    1.0014723    9325.3924   0.74120205 
   37000   -6.1593139    1.4988646   -4.6604493   0.95240984   0.99938765    9356.3081   0.73875292 
   38000   -6.1862296    1.5105769   -4.6756528   0.93907115     1.007197    9322.9384   0.74139716 
   39000   -6.1758755    1.4956498   -4.6802257   0.95162863   0.99724414    9372.8681    0.7374477 
   40000   -6.1964363    1.4935057   -4.7029305   0.98322987   0.99581454    9291.6239    0.7438958 
   41000   -6.1600471    1.4894757   -4.6705714    1.1095159   0.99312747    9337.0541   0.74027631 
   42000    -6.146239    1.4908514   -4.6553876    1.0213234   0.99404476    9380.5348   0.73684498 
   43000   -6.2176243    1.5026073   -4.7150171   0.95477685    1.0018831    9258.9186   0.74652347 
   44000   -6.1446229    1.5115535   -4.6330694    1.0065608    1.0078481    9399.4698   0.73536062 
   45000   -6.1790287     1.477386   -4.7016427   0.97060918    0.9850665    9292.1211   0.74385599 
   46000    -6.181111    1.5007394   -4.6803717   0.98541621    1.0006377    9341.7975   0.73990043 
   47000   -6.1836442    1.4912669   -4.6923773   0.94629367   0.99432176    9327.9746   0.74099687 
   48000   -6.1897435    1.5008119   -4.6889316   0.99605985     1.000686    9325.1464   0.74122161 
   49000    -6.187022     1.497085    -4.689937   0.95225228    0.9982011    9292.6624   0.74381266 
   50000   -6.1609628    1.5174961   -4.6434667    1.0619253    1.0118105    9343.9579   0.73972936 
Loop time of 470.126 on 2 procs for 50000 steps with 6912 atoms

Performance: 45945.156 tau/day, 106.355 timesteps/s
99.3% CPU use with 2 MPI tasks x no OpenMP threads

MPI task timing breakdown:
Section |  min time  |  avg time  |  max time  |%varavg| %total
---------------------------------------------------------------
Pair    | 388.17     | 395.68     | 403.2      |  37.8 | 84.17
Neigh   | 41.181     | 41.345     | 41.509     |   2.6 |  8.79
Comm    | 11.973     | 19.625     | 27.277     | 172.7 |  4.17
Output  | 0.26008    | 0.26045    | 0.26082    |   0.1 |  0.06
Modify  | 12.099     | 12.125     | 12.152     |   0.8 |  2.58
Other   |            | 1.086      |            |       |  0.23

Nlocal:    3456 ave 3516 max 3396 min
Histogram: 1 0 0 0 0 0 0 0 0 1
Nghost:    7465 ave 7489 max 7441 min
Histogram: 1 0 0 0 0 0 0 0 0 1
Neighs:    293418 ave 306403 max 280432 min
Histogram: 1 0 0 0 0 0 0 0 0 1

Total # of neighbors = 586835
Ave neighs/atom = 84.9009
Neighbor list builds = 2500
Dangerous builds not checked
unfix   intnpt
undump  id


#Using Nvt to calculate the rdf

fix         intnvt all nvt temp ${temp} ${temp} ${tdamp}
fix         intnvt all nvt temp 1 ${temp} ${tdamp}
fix         intnvt all nvt temp 1 1 ${tdamp}
fix         intnvt all nvt temp 1 1 1
compute     rdfnvt all rdf 100 1 1 1 2 2 2
fix         rdfnvt all ave/time ${Nevery} ${Nrepeat} ${Nfreq} c_rdfnvt[*] file systemnvt.rdf.${eps} mode vector ave window 2
fix         rdfnvt all ave/time 1000 ${Nrepeat} ${Nfreq} c_rdfnvt[*] file systemnvt.rdf.${eps} mode vector ave window 2
fix         rdfnvt all ave/time 1000 100 ${Nfreq} c_rdfnvt[*] file systemnvt.rdf.${eps} mode vector ave window 2
fix         rdfnvt all ave/time 1000 100 100000 c_rdfnvt[*] file systemnvt.rdf.${eps} mode vector ave window 2
fix         rdfnvt all ave/time 1000 100 100000 c_rdfnvt[*] file systemnvt.rdf.12 mode vector ave window 2
dump        idnvt all atom 1000 out.dump.nvt.${eps}.lammpstrj
dump        idnvt all atom 1000 out.dump.nvt.12.lammpstrj
thermo      ${nthermo}
thermo      1000
thermo_style custom step pe ke etotal press temp vol density
restart     100000 restartnvt1.data restartnvt2.data
run         200000
Neighbor list info ...
  update every 20 steps, delay 0 steps, check no
  max neighbors/atom: 2000, page size: 100000
  master list distance cutoff = 3.8
  ghost atom cutoff = 3.8
  binsize = 1.9, bins = 12 12 12
  2 neighbor lists, perpetual/occasional/extra = 1 1 0
  (1) pair lj/cut, perpetual
      attributes: half, newton on
      pair build: half/bin/atomonly/newton
      stencil: half/bin/3d/newton
      bin: standard
  (2) compute rdf, occasional, copy from (1)
      attributes: half, newton on
      pair build: copy
      stencil: none
      bin: none
Per MPI rank memory allocation (min/avg/max) = 4.926 | 5.117 | 5.308 Mbytes
Step PotEng KinEng TotEng Press Temp Volume Density 
   50000   -6.1609628    1.5174961   -4.6434667    1.0619253    1.0118105    9343.9579   0.73972936 
   51000   -6.1532849    1.4885837   -4.6647012    1.0127581    0.9925327    9343.9579   0.73972936 
   52000   -6.1762437       1.5067   -4.6695438   0.88649228     1.004612    9343.9579   0.73972936 
   53000   -6.1640213    1.4896256   -4.6743958   0.92269603   0.99322741    9343.9579   0.73972936 
   54000   -6.1892223    1.5003318   -4.6888905   0.92971532    1.0003659    9343.9579   0.73972936 
   55000   -6.1778873    1.5027083    -4.675179   0.95840577    1.0019505    9343.9579   0.73972936 
   56000   -6.1596015    1.4820747   -4.6775268   0.94465345   0.98819275    9343.9579   0.73972936 
   57000   -6.1651707    1.5053324   -4.6598383    1.0389785    1.0037002    9343.9579   0.73972936 
   58000   -6.1561891    1.5129145   -4.6432746    1.0309176    1.0087556    9343.9579   0.73972936 
   59000   -6.1644941    1.5076767   -4.6568175    1.0419816    1.0052632    9343.9579   0.73972936 
   60000   -6.1719317    1.5072986   -4.6646331    1.0329249    1.0050111    9343.9579   0.73972936 
   61000   -6.1643336    1.5195976    -4.644736   0.97429141    1.0132116    9343.9579   0.73972936 
   62000   -6.1736605     1.500919   -4.6727415   0.93421448    1.0007575    9343.9579   0.73972936 
   63000   -6.1940833    1.5133441   -4.6807392   0.97487972     1.009042    9343.9579   0.73972936 
   64000   -6.1791029     1.493479   -4.6856239    1.0380038   0.99579671    9343.9579   0.73972936 
   65000   -6.1899766     1.509639   -4.6803376   0.89419699    1.0065716    9343.9579   0.73972936 
   66000   -6.1733265    1.4925097   -4.6808168    1.0198263   0.99515042    9343.9579   0.73972936 
   67000   -6.1595954    1.4865955   -4.6729999   0.97712709   0.99120706    9343.9579   0.73972936 
   68000   -6.1786677    1.5303766   -4.6482912   0.99798509    1.0203987    9343.9579   0.73972936 
   69000     -6.16871    1.5172574   -4.6514526    1.0700174    1.0116513    9343.9579   0.73972936 
   70000   -6.1761553    1.5078218   -4.6683336   0.96461311      1.00536    9343.9579   0.73972936 
   71000   -6.1692365    1.4968009   -4.6724356   0.91519992   0.99801167    9343.9579   0.73972936 
   72000   -6.1652501    1.5090914   -4.6561587   0.96473633    1.0062065    9343.9579   0.73972936 
   73000   -6.1547193    1.4998722   -4.6548471    1.0235092    1.0000595    9343.9579   0.73972936 
   74000   -6.1809678    1.5181547   -4.6628131   0.98243012    1.0122496    9343.9579   0.73972936 
   75000   -6.1718922    1.4913209   -4.6805713   0.98182294   0.99435778    9343.9579   0.73972936 
   76000   -6.1761744     1.510178   -4.6659963    1.0427305     1.006931    9343.9579   0.73972936 
   77000   -6.1743805    1.5094742   -4.6649064   0.92795932    1.0064617    9343.9579   0.73972936 
   78000   -6.1630409    1.4885867   -4.6744543   0.95593791    0.9925347    9343.9579   0.73972936 
   79000   -6.1810083    1.5076194   -4.6733889   0.93284966     1.005225    9343.9579   0.73972936 
   80000   -6.1830906    1.4962294   -4.6868613   0.86371291   0.99763058    9343.9579   0.73972936 
   81000    -6.182346    1.4903513   -4.6919947    1.0438519    0.9937113    9343.9579   0.73972936 
   82000   -6.1791486    1.4815007   -4.6976478   0.94143328   0.98781007    9343.9579   0.73972936 
   83000   -6.1975286     1.492747   -4.7047816   0.84354786   0.99530867    9343.9579   0.73972936 
   84000   -6.1695996    1.4808168   -4.6887828   0.99807463   0.98735402    9343.9579   0.73972936 
   85000   -6.1776817    1.4890829   -4.6885988    1.0005587    0.9928656    9343.9579   0.73972936 
   86000    -6.160047    1.5215299    -4.638517    1.0689729    1.0145001    9343.9579   0.73972936 
   87000   -6.1651146    1.5143822   -4.6507324    1.0650921    1.0097342    9343.9579   0.73972936 
   88000   -6.1694013    1.5201894   -4.6492119   0.99185407    1.0136062    9343.9579   0.73972936 
   89000   -6.1767982     1.508918   -4.6678802   0.99993079    1.0060909    9343.9579   0.73972936 
   90000   -6.1597132    1.5177462    -4.641967   0.98725417    1.0119772    9343.9579   0.73972936 
   91000   -6.1622491    1.4988161    -4.663433     1.050628    0.9993553    9343.9579   0.73972936 
   92000   -6.1669397    1.5063049   -4.6606348    1.0441871    1.0043486    9343.9579   0.73972936 
   93000    -6.162726    1.4974442   -4.6652817   0.96990814   0.99844061    9343.9579   0.73972936 
   94000   -6.1871606    1.4985647    -4.688596   0.94416853   0.99918767    9343.9579   0.73972936 
   95000   -6.1802829     1.519501   -4.6607819   0.93197688    1.0131472    9343.9579   0.73972936 
   96000    -6.183596    1.5218878   -4.6617082   0.95930498    1.0147387    9343.9579   0.73972936 
   97000   -6.1754535    1.4841151   -4.6913384   0.97676537   0.98955322    9343.9579   0.73972936 
   98000   -6.1911762    1.5066938   -4.6844824   0.87113079    1.0046079    9343.9579   0.73972936 
   99000   -6.1750687    1.4969141   -4.6781546   0.97891605   0.99808711    9343.9579   0.73972936 
  100000   -6.1530161    1.4978664   -4.6551496    1.0649205   0.99872212    9343.9579   0.73972936 
  101000   -6.1719354    1.5021321   -4.6698033   0.97105284    1.0015663    9343.9579   0.73972936 
  102000   -6.1672136    1.5072936   -4.6599201    1.0829004    1.0050078    9343.9579   0.73972936 
  103000   -6.1685737    1.5106724   -4.6579013   0.97474742    1.0072607    9343.9579   0.73972936 
  104000   -6.1667354    1.5221481   -4.6445873   0.90960492    1.0149123    9343.9579   0.73972936 
  105000    -6.174966    1.5302793   -4.6446867   0.96474735    1.0203338    9343.9579   0.73972936 
  106000    -6.159845    1.4900663   -4.6697787   0.92926722   0.99352129    9343.9579   0.73972936 
  107000   -6.1645818    1.5161703   -4.6484115    1.0546665    1.0109265    9343.9579   0.73972936 
  108000   -6.1654973    1.4974459   -4.6680514   0.94553674   0.99844172    9343.9579   0.73972936 
  109000     -6.17276    1.4938774   -4.6788826   0.92730627   0.99606239    9343.9579   0.73972936 
  110000   -6.1630586    1.4724883   -4.6905703    1.0292819   0.98180089    9343.9579   0.73972936 
  111000   -6.1860883    1.4873097   -4.6987786   0.85619796   0.99168328    9343.9579   0.73972936 
  112000   -6.1926487    1.4979473   -4.6947013    0.9231357   0.99877606    9343.9579   0.73972936 
  113000   -6.1637194    1.4863602   -4.6773592    1.0682985   0.99105018    9343.9579   0.73972936 
  114000   -6.1709272    1.4857461   -4.6851811   0.86756061   0.99064072    9343.9579   0.73972936 
  115000   -6.1569797    1.5069126   -4.6500672    1.0218415    1.0047537    9343.9579   0.73972936 
  116000    -6.165426     1.523081    -4.642345   0.99833755    1.0155342    9343.9579   0.73972936 
  117000    -6.148096    1.4939173   -4.6541786    1.0324614   0.99608898    9343.9579   0.73972936 
  118000   -6.1754614    1.5056029   -4.6698585    1.0873933    1.0038805    9343.9579   0.73972936 
  119000   -6.1745584    1.5060573   -4.6685011    1.0213267    1.0041835    9343.9579   0.73972936 
  120000     -6.18366    1.4915859   -4.6920741   0.96769821   0.99453451    9343.9579   0.73972936 
  121000   -6.1770869    1.4885617   -4.6885252   0.95944557   0.99251805    9343.9579   0.73972936 
  122000   -6.1724629    1.5016719   -4.6707911   0.95323189    1.0012594    9343.9579   0.73972936 
  123000   -6.1783069    1.4989774   -4.6793295   0.99290911   0.99946289    9343.9579   0.73972936 
  124000   -6.1840238    1.4868657   -4.6971581   0.87623079   0.99138722    9343.9579   0.73972936 
  125000   -6.1678435    1.4786942   -4.6891493   0.97873882   0.98593875    9343.9579   0.73972936 
  126000    -6.160584    1.4913602   -4.6692238    1.0233746   0.99438402    9343.9579   0.73972936 
  127000   -6.1781359    1.5001482   -4.6779878   0.95033394    1.0002435    9343.9579   0.73972936 
  128000   -6.1668063    1.4987095   -4.6680968    1.0558429   0.99928424    9343.9579   0.73972936 
  129000   -6.1414455    1.4951108   -4.6463348     1.085021   0.99688473    9343.9579   0.73972936 
  130000    -6.151334    1.5194724   -4.6318616    1.0556791    1.0131282    9343.9579   0.73972936 
  131000   -6.1700692    1.5308811   -4.6391881   0.91502658    1.0207351    9343.9579   0.73972936 
  132000   -6.1699259    1.5182231   -4.6517027     1.025823    1.0122952    9343.9579   0.73972936 
  133000   -6.1744459    1.5161586   -4.6582873   0.99270213    1.0109187    9343.9579   0.73972936 
  134000   -6.1780428    1.5078802   -4.6701626   0.93577202     1.005399    9343.9579   0.73972936 
  135000   -6.1664237    1.4861117   -4.6803119   0.97382231   0.99088451    9343.9579   0.73972936 
  136000    -6.188062    1.4846487   -4.7034133   0.84978969     0.989909    9343.9579   0.73972936 
  137000   -6.1697279    1.4850352   -4.6846927   0.88262058    0.9901667    9343.9579   0.73972936 
  138000   -6.1656961     1.492353   -4.6733432   0.94167418   0.99504594    9343.9579   0.73972936 
  139000    -6.176222    1.4940796   -4.6821424   0.90598949   0.99619719    9343.9579   0.73972936 
  140000   -6.1799701     1.485368   -4.6946022    1.0012237   0.99038859    9343.9579   0.73972936 
  141000   -6.1696324     1.500147   -4.6694853   0.97212867    1.0002427    9343.9579   0.73972936 
  142000   -6.1576392    1.4990474   -4.6585918    1.0035347   0.99950957    9343.9579   0.73972936 
  143000    -6.173867     1.513095   -4.6607721   0.92396379    1.0088759    9343.9579   0.73972936 
  144000   -6.1716287     1.502175   -4.6694537   0.91830099    1.0015949    9343.9579   0.73972936 
  145000   -6.1498456    1.4888946    -4.660951    1.0283528   0.99274003    9343.9579   0.73972936 
  146000   -6.1631439    1.4996288   -4.6635152   0.99057268   0.99989716    9343.9579   0.73972936 
  147000   -6.1596604    1.4891657   -4.6704947    1.0521648   0.99292078    9343.9579   0.73972936 
  148000   -6.1545013    1.4660693   -4.6884321    1.0722812   0.97752093    9343.9579   0.73972936 
  149000   -6.1724222    1.4972687   -4.6751535   0.96434092   0.99832357    9343.9579   0.73972936 
  150000   -6.1804727    1.5077696   -4.6727032    1.0010862    1.0053252    9343.9579   0.73972936 
  151000   -6.1747849    1.4985086   -4.6762763   0.94371789   0.99915027    9343.9579   0.73972936 
  152000   -6.1808211    1.5025899   -4.6782312   0.98156032    1.0018715    9343.9579   0.73972936 
  153000   -6.1836066    1.4737274   -4.7098792   0.93170003    0.9826271    9343.9579   0.73972936 
  154000   -6.1799827    1.4834683   -4.6965144   0.95575667   0.98912195    9343.9579   0.73972936 
  155000    -6.160267    1.4718066   -4.6884604    1.0154138    0.9813464    9343.9579   0.73972936 
  156000   -6.1668991    1.4896075   -4.6772917   0.97840031   0.99321533    9343.9579   0.73972936 
  157000   -6.1675784    1.4884248   -4.6791536    1.0231758    0.9924268    9343.9579   0.73972936 
  158000   -6.1713118    1.5014041   -4.6699077   0.98648192    1.0010809    9343.9579   0.73972936 
  159000   -6.1690468    1.5104557   -4.6585911   0.98780658    1.0071161    9343.9579   0.73972936 
  160000   -6.1718379    1.5255347   -4.6463032     1.002627    1.0171703    9343.9579   0.73972936 
  161000   -6.1798968    1.5075496   -4.6723473   0.95540547    1.0051785    9343.9579   0.73972936 
  162000   -6.1635382      1.51601   -4.6475282    1.0222557    1.0108196    9343.9579   0.73972936 
  163000    -6.171698     1.505499   -4.6661991   0.92983454    1.0038112    9343.9579   0.73972936 
  164000   -6.1617467     1.480976   -4.6807707     1.017213   0.98746017    9343.9579   0.73972936 
  165000   -6.1713359     1.506564   -4.6647719   0.99800428    1.0045213    9343.9579   0.73972936 
  166000   -6.1672952    1.5110912    -4.656204    1.0584635    1.0075399    9343.9579   0.73972936 
  167000   -6.1759444    1.5220976   -4.6538468    1.0019085    1.0148786    9343.9579   0.73972936 
  168000   -6.1625908    1.5086146   -4.6539762    0.9753108    1.0058886    9343.9579   0.73972936 
  169000   -6.1683057    1.5113694   -4.6569362    1.0151811    1.0077254    9343.9579   0.73972936 
  170000   -6.1672048    1.4923039   -4.6749008    0.9281415   0.99501324    9343.9579   0.73972936 
  171000   -6.1851341    1.5133759   -4.6717582   0.99519647    1.0090633    9343.9579   0.73972936 
  172000   -6.1681415    1.4887356   -4.6794059    1.0411626   0.99263398    9343.9579   0.73972936 
  173000    -6.176679    1.5038574   -4.6728216   0.91493601    1.0027167    9343.9579   0.73972936 
  174000   -6.1536508    1.5027147   -4.6509362      1.06902    1.0019547    9343.9579   0.73972936 
  175000   -6.1772496    1.5316357   -4.6456139   0.93098164    1.0212382    9343.9579   0.73972936 
  176000   -6.1548156    1.5065808   -4.6482348    1.0522205    1.0045325    9343.9579   0.73972936 
  177000   -6.1623528    1.4972447   -4.6651081    1.0519561   0.99830754    9343.9579   0.73972936 
  178000   -6.1820715    1.4752565    -4.706815    0.8442208   0.98364663    9343.9579   0.73972936 
  179000   -6.1910905    1.4806829   -4.7104076   0.87034183   0.98726476    9343.9579   0.73972936 
  180000   -6.1600327    1.4791568   -4.6808759      1.04696    0.9862472    9343.9579   0.73972936 
  181000   -6.1697038    1.4953038      -4.6744   0.94464308   0.99701346    9343.9579   0.73972936 
  182000   -6.1621121    1.4850402   -4.6770719   0.93594063   0.99017002    9343.9579   0.73972936 
  183000   -6.1604397    1.4631591   -4.6972805    1.0545703   0.97558057    9343.9579   0.73972936 
  184000   -6.1891028    1.5115425   -4.6775603   0.93715334    1.0078408    9343.9579   0.73972936 
  185000   -6.1625569    1.4967079    -4.665849   0.92561251   0.99794967    9343.9579   0.73972936 
  186000   -6.1668569    1.4987848   -4.6680721   0.98775205   0.99933444    9343.9579   0.73972936 
  187000   -6.1733658    1.5097263   -4.6636396   0.99744143    1.0066298    9343.9579   0.73972936 
  188000   -6.1644903     1.518652   -4.6458383    1.0407498    1.0125811    9343.9579   0.73972936 
  189000   -6.1701403    1.5126706   -4.6574697    1.0345092     1.008593    9343.9579   0.73972936 
  190000    -6.185732    1.5038081   -4.6819239    0.8823845    1.0026838    9343.9579   0.73972936 
  191000   -6.1712927    1.4852548   -4.6860379   0.94318749   0.99031313    9343.9579   0.73972936 
  192000   -6.1759997    1.4923197     -4.68368   0.91739618   0.99502377    9343.9579   0.73972936 
  193000   -6.1772296    1.4787699   -4.6984597   0.94937628   0.98598922    9343.9579   0.73972936 
  194000     -6.16329    1.4764998   -4.6867902   0.91252246   0.98447563    9343.9579   0.73972936 
  195000   -6.1707157    1.4859268   -4.6847889   0.93474885   0.99076122    9343.9579   0.73972936 
  196000   -6.1703947     1.498419   -4.6719757    0.9832749   0.99909052    9343.9579   0.73972936 
  197000    -6.153487    1.5011014   -4.6523856    1.0403381    1.0008791    9343.9579   0.73972936 
  198000   -6.1561283    1.4931871   -4.6629412   0.95180175   0.99560213    9343.9579   0.73972936 
  199000   -6.1659368    1.4814873   -4.6844495    1.0224522   0.98780108    9343.9579   0.73972936 
  200000   -6.1765592    1.4838063   -4.6927529   0.95168132   0.98934731    9343.9579   0.73972936 
  201000    -6.174562    1.4926868   -4.6818752    1.0003647    0.9952685    9343.9579   0.73972936 
  202000   -6.1669304    1.4771419   -4.6897885    1.0610511   0.98490377    9343.9579   0.73972936 
  203000   -6.1507802    1.5114485   -4.6393318    1.0266459    1.0077781    9343.9579   0.73972936 
  204000   -6.1657925    1.5216825     -4.64411   0.97824505    1.0146018    9343.9579   0.73972936 
  205000   -6.1839207    1.5231809   -4.6607398   0.95139838    1.0156009    9343.9579   0.73972936 
  206000   -6.1519672    1.4770477   -4.6749195    1.1161736   0.98484093    9343.9579   0.73972936 
  207000   -6.1829615     1.510594   -4.6723675   0.96594474    1.0072084    9343.9579   0.73972936 
  208000    -6.169269    1.4923515   -4.6769175    1.0029975   0.99504494    9343.9579   0.73972936 
  209000   -6.1898646    1.5109358   -4.6789288    1.0033031    1.0074363    9343.9579   0.73972936 
  210000   -6.1921305    1.5093671   -4.6827634   0.83318841    1.0063903    9343.9579   0.73972936 
  211000   -6.1713331    1.4946576   -4.6766755    1.0569529   0.99658261    9343.9579   0.73972936 
  212000     -6.15992     1.506791    -4.653129    0.9651526    1.0046727    9343.9579   0.73972936 
  213000    -6.149585    1.4918446   -4.6577405    1.0063991   0.99470695    9343.9579   0.73972936 
  214000   -6.1720982    1.5022158   -4.6698824    1.0410066    1.0016221    9343.9579   0.73972936 
  215000   -6.1618825    1.5005822   -4.6613003    1.0371672    1.0005329    9343.9579   0.73972936 
  216000   -6.1627257    1.5228453   -4.6398804   0.97393034    1.0153771    9343.9579   0.73972936 
  217000   -6.1708345    1.5233867   -4.6474477    1.0067296    1.0157381    9343.9579   0.73972936 
  218000   -6.1722143    1.5061793   -4.6660351    1.0887424    1.0042648    9343.9579   0.73972936 
  219000   -6.1682316    1.4798993   -4.6883323   0.92033578   0.98674226    9343.9579   0.73972936 
  220000   -6.1890205    1.4922712   -4.6967493   0.90917521   0.99499144    9343.9579   0.73972936 
  221000   -6.1687124     1.496483   -4.6722294   0.98631126    0.9977997    9343.9579   0.73972936 
  222000   -6.1673311    1.4917484   -4.6755828   0.97444772   0.99464283    9343.9579   0.73972936 
  223000   -6.1686843    1.5000179   -4.6686664   0.99106691    1.0001566    9343.9579   0.73972936 
  224000   -6.1591989     1.482908   -4.6762909    1.0110228   0.98874836    9343.9579   0.73972936 
  225000   -6.1759384    1.5117527   -4.6641857   0.95517673    1.0079809    9343.9579   0.73972936 
  226000   -6.1881181    1.5018119   -4.6863063   0.95557727    1.0013528    9343.9579   0.73972936 
  227000    -6.169953    1.4752059   -4.6947471   0.99220578    0.9836129    9343.9579   0.73972936 
  228000   -6.1729735    1.5177412   -4.6552323   0.97680799    1.0119739    9343.9579   0.73972936 
  229000   -6.1727324    1.5125651   -4.6601673      1.04981    1.0085226    9343.9579   0.73972936 
  230000   -6.1635933    1.5068859   -4.6567074   0.98885702     1.004736    9343.9579   0.73972936 
  231000   -6.1469627    1.5053509   -4.6416118    1.0683238    1.0037125    9343.9579   0.73972936 
  232000    -6.163259    1.5133924   -4.6498666     1.086142    1.0090743    9343.9579   0.73972936 
  233000   -6.1634885    1.5027986   -4.6606899   0.97263401    1.0020107    9343.9579   0.73972936 
  234000   -6.1810415    1.5103243   -4.6707172    1.0092904    1.0070286    9343.9579   0.73972936 
  235000   -6.1443929    1.5030016   -4.6413913    1.0196967    1.0021461    9343.9579   0.73972936 
  236000   -6.1492696     1.500028   -4.6492416    1.0454376    1.0001634    9343.9579   0.73972936 
  237000   -6.1600685    1.4970294   -4.6630391    1.0054032     0.998164    9343.9579   0.73972936 
  238000   -6.1632148    1.5002039   -4.6630109   0.97381711    1.0002806    9343.9579   0.73972936 
  239000   -6.1902689    1.5174931   -4.6727758   0.94010283    1.0118085    9343.9579   0.73972936 
  240000   -6.1761575    1.4881468   -4.6880107   0.97987336   0.99224139    9343.9579   0.73972936 
  241000    -6.181207    1.5043698   -4.6768372   0.92010826    1.0030583    9343.9579   0.73972936 
  242000   -6.1735518    1.4927239   -4.6808279    1.0501324   0.99529325    9343.9579   0.73972936 
  243000   -6.1728538    1.4939449   -4.6789089   0.99425736   0.99610739    9343.9579   0.73972936 
  244000   -6.1724099    1.4789397   -4.6934702   0.93735312   0.98610244    9343.9579   0.73972936 
  245000   -6.1574662    1.4906386   -4.6668276    1.1198443   0.99390288    9343.9579   0.73972936 
  246000   -6.1780367    1.5183728   -4.6596639   0.95614856     1.012395    9343.9579   0.73972936 
  247000   -6.1649923    1.5121578   -4.6528344    0.9950763    1.0082511    9343.9579   0.73972936 
  248000   -6.1600102    1.5248301   -4.6351802   0.99778047    1.0167005    9343.9579   0.73972936 
  249000   -6.1472109    1.5077369    -4.639474    1.0390174    1.0053034    9343.9579   0.73972936 
  250000   -6.1777727    1.5219845   -4.6557881    1.0235368    1.0148032    9343.9579   0.73972936 
Loop time of 1163.35 on 2 procs for 200000 steps with 6912 atoms

Performance: 74268.025 tau/day, 171.917 timesteps/s
99.4% CPU use with 2 MPI tasks x no OpenMP threads

MPI task timing breakdown:
Section |  min time  |  avg time  |  max time  |%varavg| %total
---------------------------------------------------------------
Pair    | 930.17     | 973.62     | 1017.1     | 139.2 | 83.69
Neigh   | 100.16     | 102.76     | 105.36     |  25.7 |  8.83
Comm    | 22.528     | 68.772     | 115.02     | 557.6 |  5.91
Output  | 0.65605    | 0.65706    | 0.65808    |   0.1 |  0.06
Modify  | 14.569     | 14.612     | 14.656     |   1.1 |  1.26
Other   |            | 2.933      |            |       |  0.25

Nlocal:    3456 ave 3550 max 3362 min
Histogram: 1 0 0 0 0 0 0 0 0 1
Nghost:    7434 ave 7501 max 7367 min
Histogram: 1 0 0 0 0 0 0 0 0 1
Neighs:    293256 ave 311820 max 274693 min
Histogram: 1 0 0 0 0 0 0 0 0 1

Total # of neighbors = 586513
Ave neighs/atom = 84.8543
Neighbor list builds = 10000
Dangerous builds not checked
unfix       intnvt
uncompute   rdfnvt
unfix       rdfnvt
undump      idnvt

next      a
jump      in.melt epsloop
variable    a loop 10   #loop parameter defined
variable    eps equal 0.5+($a-1)*0.5
variable    eps equal 0.5+(10-1)*0.5
if "${eps} > 2" then "variable eps equal 2.0+($a-4)*2.0" #epsilon value will increase at rate of 0.5 from 0.5 till 2.0
variable eps equal 2.0+($a-4)*2.0
variable eps equal 2.0+(10-4)*2.0


#Seeting the pair coefficient for all types of interaction
pair_coeff	1 1 10.0 1.0 3.5  # epsilon sigma and rcut is defined repectively
pair_coeff	1 2 ${eps} 1.0 3.5
pair_coeff	1 2 14 1.0 3.5
pair_coeff	2 2 0.8 1.0 3.5 # Use epsilon(nanoparticle)=10.0


minimize  1.0e-4 1.0e-6 100 1000
WARNING: Using 'neigh_modify every 1 delay 0 check yes' setting during minimization (../min.cpp:190)
Neighbor list info ...
  update every 1 steps, delay 0 steps, check yes
  max neighbors/atom: 2000, page size: 100000
  master list distance cutoff = 3.8
  ghost atom cutoff = 3.8
  binsize = 1.9, bins = 12 12 12
  1 neighbor lists, perpetual/occasional/extra = 1 0 0
  (1) pair lj/cut, perpetual
      attributes: half, newton on
      pair build: half/bin/atomonly/newton
      stencil: half/bin/3d/newton
      bin: standard
Per MPI rank memory allocation (min/avg/max) = 5.417 | 5.608 | 5.799 Mbytes
Step PotEng KinEng TotEng Press Temp Volume Density 
  250000    -6.402774    1.5219845   -4.8807895   0.95512988    1.0148032    9343.9579   0.73972936 
  250100   -7.5003548    1.5219845   -5.9783703   -1.5532272    1.0148032    9343.9579   0.73972936 
Loop time of 1.44539 on 2 procs for 100 steps with 6912 atoms

100.0% CPU use with 2 MPI tasks x no OpenMP threads

Minimization stats:
  Stopping criterion = max iterations
  Energy initial, next-to-last, final = 
        -6.40277403154     -7.49701367758     -7.50035481121
  Force two-norm initial, final = 2584.72 270.983
  Force max component initial, final = 213.262 76.9992
  Final line search alpha, max atom move = 0.00165775 0.127646
  Iterations, force evaluations = 100 200

MPI task timing breakdown:
Section |  min time  |  avg time  |  max time  |%varavg| %total
---------------------------------------------------------------
Pair    | 1.0539     | 1.1227     | 1.1914     |   6.5 | 77.67
Neigh   | 0.19601    | 0.20337    | 0.21073    |   1.6 | 14.07
Comm    | 0.024328   | 0.10036    | 0.17638    |  24.0 |  6.94
Output  | 4.5047e-05 | 5.0592e-05 | 5.6136e-05 |   0.0 |  0.00
Modify  | 0          | 0          | 0          |   0.0 |  0.00
Other   |            | 0.01893    |            |       |  1.31

Nlocal:    3456 ave 3560 max 3352 min
Histogram: 1 0 0 0 0 0 0 0 0 1
Nghost:    7388 ave 7443 max 7333 min
Histogram: 1 0 0 0 0 0 0 0 0 1
Neighs:    293816 ave 314701 max 272930 min
Histogram: 1 0 0 0 0 0 0 0 0 1

Total # of neighbors = 587631
Ave neighs/atom = 85.0161
Neighbor list builds = 28
Dangerous builds not checked

neighbor	0.3 bin   #skin factor is taken to 0.3
neigh_modify	every 20 delay 0 check no
timestep 0.005
variable nthermo equal 1000
variable temp equal 1.0
variable tdamp equal 1.0
variable pext equal 1.0
variable pdamp equal 10.0
variable Nevery equal 1000
variable Nfreq equal 100000
variable Nrepeat equal 100
reset_timestep 0

#Using Npt to Calculate the rdf

fix 		intnpt all npt temp ${temp} ${temp} ${tdamp} iso ${pext} ${pext} ${pdamp}
fix 		intnpt all npt temp 1 ${temp} ${tdamp} iso ${pext} ${pext} ${pdamp}
fix 		intnpt all npt temp 1 1 ${tdamp} iso ${pext} ${pext} ${pdamp}
fix 		intnpt all npt temp 1 1 1 iso ${pext} ${pext} ${pdamp}
fix 		intnpt all npt temp 1 1 1 iso 1 ${pext} ${pdamp}
fix 		intnpt all npt temp 1 1 1 iso 1 1 ${pdamp}
fix 		intnpt all npt temp 1 1 1 iso 1 1 10
dump		id all atom 1000 out.dump.npt.${eps}.lammpstrj
dump		id all atom 1000 out.dump.npt.14.lammpstrj
thermo		${nthermo}
thermo		1000
thermo_style custom step pe ke etotal press temp vol density
restart 25000 restartnpt1.data restartnpt2.data
run		  50000
Per MPI rank memory allocation (min/avg/max) = 4.928 | 5.119 | 5.31 Mbytes
Step PotEng KinEng TotEng Press Temp Volume Density 
       0   -7.5003548    1.5219845   -5.9783703   -1.5532272    1.0148032    9343.9579   0.73972936 
    1000   -6.6883262    1.4800378   -5.2082884    1.5603255   0.98683466    8729.0243   0.79184108 
    2000    -6.443962    1.5017877   -4.9421743    1.1940915    1.0013366    9236.3575   0.74834695 
    3000   -6.3987663    1.4982961   -4.9004702    1.0233681   0.99900859    9338.7594   0.74014114 
    4000   -6.4274956    1.4982819   -4.9292138    1.0805665    0.9989991    9298.4314   0.74335118 
    5000   -6.4112813    1.4944451   -4.9168362   0.95113431   0.99644092    9335.7638   0.74037863 
    6000   -6.4095295    1.4868983   -4.9226311    1.1031873   0.99140898    9312.5272   0.74222602 
    7000   -6.4202455    1.4944245    -4.925821   0.93988726   0.99642713     9307.207   0.74265029 
    8000   -6.4299459    1.5234735   -4.9064725   0.95221203    1.0157959    9321.8002   0.74148768 
    9000   -6.4419553    1.4999354   -4.9420199    1.1320228    1.0001016    9270.0931   0.74562358 
   10000   -6.4380324    1.5323117   -4.9057207   0.98275087    1.0216889    9354.6748   0.73888191 
   11000   -6.4658006    1.5093612   -4.9564394     1.127365    1.0063864    9270.5188   0.74558934 
   12000   -6.4556973    1.5096764   -4.9460209   0.89553712    1.0065965    9325.5791   0.74118722 
   13000   -6.4216538    1.4703376   -4.9513162   0.84765368   0.98036689     9390.731   0.73604493 
   14000   -6.4861948    1.5233038   -4.9628909   0.95789505    1.0156828    9307.3684   0.74263741 
   15000   -6.4664779    1.5104275   -4.9560505   0.94638521    1.0070974    9304.8413    0.7428391 
   16000   -6.7889456    1.6312186    -5.157727    1.0398159    1.0876364    9333.0664   0.74059261 
   17000   -7.4122214    1.5938835   -5.8183379    1.0092876    1.0627427    9155.4468   0.75496042 
   18000   -7.8899138    1.5218154   -6.3680984    1.0512607    1.0146904    8931.4078   0.77389815 
   19000   -8.0633584    1.4745277   -6.5888306    1.1567571   0.98316073    8846.3053   0.78134315 
   20000   -8.0804768    1.5094868   -6.5709901   0.90451721    1.0064701    8994.0545   0.76850768 
   21000   -8.0856752    1.5086679   -6.5770073   0.99703408    1.0059241    9045.8102   0.76411066 
   22000   -8.1349781    1.5282131    -6.606765   0.99208348    1.0189562    9022.4695   0.76608738 
   23000   -8.1156943    1.4961993   -6.6194949    1.0569245   0.99761056    9050.1597   0.76374342 
   24000   -8.1073882    1.4949579   -6.6124303   0.95347189   0.99678284    9099.9173   0.75956734 
   25000   -8.1477975    1.5056956   -6.6421019    1.0223257    1.0039423    9040.6482   0.76454695 
   26000   -8.1300908    1.4945986   -6.6354922   0.98294143   0.99654325    9075.8466   0.76158184 
   27000   -8.1691183    1.4815791   -6.6875392    1.0264478   0.98786231    9023.9351   0.76596295 
   28000    -8.142317    1.5220447   -6.6202723    1.0422496    1.0148433    9083.9791   0.76090003 
   29000   -8.1874259    1.4997496   -6.6876763   0.96071191   0.99997776     9024.826   0.76588734 
   30000   -8.1887441    1.4653597   -6.7233843   0.96788163   0.97704784     9039.081   0.76467951 
   31000    -8.197426    1.4796064   -6.7178196   0.88338135   0.98654699    9058.9909   0.76299889 
   32000   -8.1854849    1.4792119    -6.706273   0.98363713   0.98628396    9107.0949   0.75896871 
   33000   -8.2475445    1.4971764   -6.7503682    1.0323855   0.99826201    9006.9635   0.76740624 
   34000   -8.2259854    1.4962537   -6.7297318   0.94905282   0.99764678    9070.5997   0.76202238 
   35000   -8.2408808    1.4858644   -6.7550164    1.0551619   0.99071962    9070.5993   0.76202241 
   36000     -8.26226    1.4813129   -6.7809471    1.1027735   0.98768486    9024.0014   0.76595733 
   37000   -8.2589728    1.4934165   -6.7655563   0.92523445   0.99575505    9089.0934   0.76047188 
   38000   -8.2981745    1.5124552   -6.7857193   0.97535374    1.0084494    9045.2011   0.76416212 
   39000   -8.2829597     1.485184   -6.7977757   0.91165477    0.9902659    9068.5891   0.76219133 
   40000   -8.2900085    1.4823978   -6.8076107    1.0303107   0.98840823    9044.7909   0.76419677 
   41000   -8.3031369    1.4827747   -6.8203622     1.020355   0.98865951    9028.6837    0.7655601 
   42000    -8.329754    1.4903271   -6.8394269   0.91317027   0.99369514    9009.7959   0.76716499 
   43000   -8.3328031    1.5044801    -6.828323   0.97378547    1.0031319    9030.9461   0.76536832 
   44000   -8.3243788    1.4932326   -6.8311462   0.88881742   0.99563241    9048.2441   0.76390512 
   45000   -8.3519765    1.4943452   -6.8576314    1.0004454   0.99637426    8985.9237   0.76920306 
   46000   -8.3074636    1.4823147   -6.8251489   0.91273897   0.98835282     9048.947   0.76384578 
   47000   -8.3324383    1.4886067   -6.8438316   0.94339099   0.99254807    9027.1703   0.76568845 
   48000   -8.3519349    1.4938657   -6.8580692   0.97839166   0.99605456    8991.7897   0.76870126 
   49000   -8.3216213     1.491815   -6.8298064    1.0031271   0.99468721    9027.1294   0.76569192 
   50000   -8.3510037    1.4876497    -6.863354    1.0280122      0.99191    8983.3756   0.76942124 
Loop time of 303.101 on 2 procs for 50000 steps with 6912 atoms

Performance: 71263.416 tau/day, 164.962 timesteps/s
99.4% CPU use with 2 MPI tasks x no OpenMP threads

MPI task timing breakdown:
Section |  min time  |  avg time  |  max time  |%varavg| %total
---------------------------------------------------------------
Pair    | 223.54     | 242.04     | 260.53     | 118.9 | 79.85
Neigh   | 25.921     | 27.464     | 29.007     |  29.4 |  9.06
Comm    | 5.3189     | 25.455     | 45.591     | 399.1 |  8.40
Output  | 0.13999    | 0.14024    | 0.1405     |   0.1 |  0.05
Modify  | 7.2693     | 7.3639     | 7.4584     |   3.5 |  2.43
Other   |            | 0.6423     |            |       |  0.21

Nlocal:    3456 ave 3599 max 3313 min
Histogram: 1 0 0 0 0 0 0 0 0 1
Nghost:    7414 ave 7488 max 7340 min
Histogram: 1 0 0 0 0 0 0 0 0 1
Neighs:    308486 ave 340157 max 276816 min
Histogram: 1 0 0 0 0 0 0 0 0 1

Total # of neighbors = 616973
Ave neighs/atom = 89.2611
Neighbor list builds = 2500
Dangerous builds not checked
unfix   intnpt
undump  id


#Using Nvt to calculate the rdf

fix         intnvt all nvt temp ${temp} ${temp} ${tdamp}
fix         intnvt all nvt temp 1 ${temp} ${tdamp}
fix         intnvt all nvt temp 1 1 ${tdamp}
fix         intnvt all nvt temp 1 1 1
compute     rdfnvt all rdf 100 1 1 1 2 2 2
fix         rdfnvt all ave/time ${Nevery} ${Nrepeat} ${Nfreq} c_rdfnvt[*] file systemnvt.rdf.${eps} mode vector ave window 2
fix         rdfnvt all ave/time 1000 ${Nrepeat} ${Nfreq} c_rdfnvt[*] file systemnvt.rdf.${eps} mode vector ave window 2
fix         rdfnvt all ave/time 1000 100 ${Nfreq} c_rdfnvt[*] file systemnvt.rdf.${eps} mode vector ave window 2
fix         rdfnvt all ave/time 1000 100 100000 c_rdfnvt[*] file systemnvt.rdf.${eps} mode vector ave window 2
fix         rdfnvt all ave/time 1000 100 100000 c_rdfnvt[*] file systemnvt.rdf.14 mode vector ave window 2
dump        idnvt all atom 1000 out.dump.nvt.${eps}.lammpstrj
dump        idnvt all atom 1000 out.dump.nvt.14.lammpstrj
thermo      ${nthermo}
thermo      1000
thermo_style custom step pe ke etotal press temp vol density
restart     100000 restartnvt1.data restartnvt2.data
run         200000
Neighbor list info ...
  update every 20 steps, delay 0 steps, check no
  max neighbors/atom: 2000, page size: 100000
  master list distance cutoff = 3.8
  ghost atom cutoff = 3.8
  binsize = 1.9, bins = 11 11 11
  2 neighbor lists, perpetual/occasional/extra = 1 1 0
  (1) pair lj/cut, perpetual
      attributes: half, newton on
      pair build: half/bin/atomonly/newton
      stencil: half/bin/3d/newton
      bin: standard
  (2) compute rdf, occasional, copy from (1)
      attributes: half, newton on
      pair build: copy
      stencil: none
      bin: none
Per MPI rank memory allocation (min/avg/max) = 4.926 | 5.118 | 5.309 Mbytes
Step PotEng KinEng TotEng Press Temp Volume Density 
   50000   -8.3510037    1.4876497    -6.863354    1.0280122      0.99191    8983.3756   0.76942124 
   51000   -8.3568797    1.4906067    -6.866273    1.0535723    0.9938816    8983.3756   0.76942124 
   52000   -8.3582585    1.4734965    -6.884762   0.96530048   0.98247312    8983.3756   0.76942124 
   53000   -8.3580927    1.4911788   -6.8669139    1.0450081   0.99426305    8983.3756   0.76942124 
   54000   -8.3644899    1.5049134   -6.8595765    1.0470702    1.0034207    8983.3756   0.76942124 
   55000   -8.3521008    1.4830521   -6.8690487   0.93783327   0.98884446    8983.3756   0.76942124 
   56000   -8.3884581    1.4999183   -6.8885399   0.92517963    1.0000902    8983.3756   0.76942124 
   57000   -8.3448017    1.4818561   -6.8629456    1.0263723   0.98804702    8983.3756   0.76942124 
   58000   -8.3516369    1.4985883   -6.8530486     1.038868   0.99920343    8983.3756   0.76942124 
   59000   -8.3527385    1.5005038   -6.8522347    1.0969648    1.0004806    8983.3756   0.76942124 
   60000   -8.3456585    1.5026868   -6.8429717    1.0961277    1.0019362    8983.3756   0.76942124 
   61000   -8.3508628    1.5257323   -6.8251305    1.0643582    1.0173021    8983.3756   0.76942124 
   62000    -8.364194    1.5015884   -6.8626056    1.0455375    1.0012038    8983.3756   0.76942124 
   63000   -8.3676563     1.500007   -6.8676493   0.99811807    1.0001494    8983.3756   0.76942124 
   64000   -8.3755659    1.5123901   -6.8631758    1.0168151     1.008406    8983.3756   0.76942124 
   65000   -8.3562883    1.4721735   -6.8841148    1.0520797     0.981591    8983.3756   0.76942124 
   66000   -8.3629673    1.4934752   -6.8694921   0.97656644   0.99579423    8983.3756   0.76942124 
   67000   -8.3642884    1.5053884      -6.8589    1.0971866    1.0037375    8983.3756   0.76942124 
   68000   -8.3678859    1.5219093   -6.8459766   0.91107529     1.014753    8983.3756   0.76942124 
   69000   -8.3676159     1.503331   -6.8642849   0.93063361    1.0023657    8983.3756   0.76942124 
   70000   -8.3448569    1.4970236   -6.8478333    1.1615848   0.99816017    8983.3756   0.76942124 
   71000   -8.3681867    1.5120541   -6.8561326    0.9826221    1.0081819    8983.3756   0.76942124 
   72000   -8.3672274    1.5013835   -6.8658439    1.0369308    1.0010671    8983.3756   0.76942124 
   73000    -8.390519    1.4768678   -6.9136513   0.88457422   0.98472098    8983.3756   0.76942124 
   74000   -8.3740515    1.5154406    -6.858611    1.0210174    1.0104399    8983.3756   0.76942124 
   75000    -8.372799    1.4895228   -6.8832762    1.0838889   0.99315889    8983.3756   0.76942124 
   76000   -8.3744085     1.501848   -6.8725605   0.90413926    1.0013769    8983.3756   0.76942124 
   77000   -8.3759333    1.4838057   -6.8921275    1.0115235   0.98934695    8983.3756   0.76942124 
   78000   -8.3706021    1.4728025   -6.8977996    1.0404015    0.9820104    8983.3756   0.76942124 
   79000   -8.3800725     1.493168   -6.8869044    1.0199311   0.99558939    8983.3756   0.76942124 
   80000   -8.3716854    1.4978616   -6.8738238    1.0552826   0.99871887    8983.3756   0.76942124 
   81000   -8.3694409    1.4997474   -6.8696935    1.0947706   0.99997629    8983.3756   0.76942124 
   82000   -8.3843905    1.4931384   -6.8912521    1.0085954   0.99556964    8983.3756   0.76942124 
   83000   -8.3653898    1.4945806   -6.8708092   0.99212167   0.99653122    8983.3756   0.76942124 
   84000    -8.348949    1.5034041   -6.8455449    1.1085382    1.0024144    8983.3756   0.76942124 
   85000   -8.3716373    1.5126466   -6.8589907    1.0432942     1.008577    8983.3756   0.76942124 
   86000   -8.3590512     1.505914   -6.8531373    1.0244182    1.0040879    8983.3756   0.76942124 
   87000   -8.3613409    1.5281387   -6.8332022    1.0829913    1.0189065    8983.3756   0.76942124 
   88000   -8.3453567    1.5212568   -6.8240999     1.131414     1.014318    8983.3756   0.76942124 
   89000   -8.3578659    1.4953737   -6.8624922    1.0888179   0.99706008    8983.3756   0.76942124 
   90000   -8.3674192      1.49987   -6.8675492     1.053069     1.000058    8983.3756   0.76942124 
   91000   -8.3579129    1.4962507   -6.8616623    1.1338124   0.99764479    8983.3756   0.76942124 
   92000   -8.3670952    1.5197899   -6.8473052    1.0648504    1.0133399    8983.3756   0.76942124 
   93000    -8.373435    1.4849271   -6.8885078   0.99244281   0.99009467    8983.3756   0.76942124 
   94000   -8.3672414    1.4766224    -6.890619    1.0136526   0.98455738    8983.3756   0.76942124 
   95000   -8.3708825    1.4892069   -6.8816756    1.0371697   0.99294823    8983.3756   0.76942124 
   96000   -8.4070084    1.5055795   -6.9014289   0.86644552    1.0038649    8983.3756   0.76942124 
   97000   -8.3782093     1.464768   -6.9134413   0.99931398   0.97665327    8983.3756   0.76942124 
   98000   -8.3935924    1.4892888   -6.9043037    1.1003506   0.99300284    8983.3756   0.76942124 
   99000   -8.4239264    1.5237369   -6.9001895   0.82986833    1.0159716    8983.3756   0.76942124 
  100000   -8.3717094    1.5299792   -6.8417302    1.1492036    1.0201338    8983.3756   0.76942124 
  101000   -8.3829767    1.5145393   -6.8684374    1.0939615     1.009839    8983.3756   0.76942124 
  102000   -8.3879901    1.5012707   -6.8867194   0.97492742     1.000992    8983.3756   0.76942124 
  103000   -8.4276525    1.4732004   -6.9544521   0.96453224   0.98227574    8983.3756   0.76942124 
  104000   -8.4031454    1.4744385   -6.9287069     1.115264    0.9831012    8983.3756   0.76942124 
  105000   -8.4002365    1.4859062   -6.9143303   0.97904187   0.99074744    8983.3756   0.76942124 
  106000   -8.3921615    1.4832042   -6.9089573    1.1286943   0.98894588    8983.3756   0.76942124 
  107000   -8.3933118    1.4750638    -6.918248     0.987951   0.98351819    8983.3756   0.76942124 
  108000   -8.3999993    1.4828403    -6.917159    0.9406365   0.98870325    8983.3756   0.76942124 
  109000   -8.4204456    1.5030948   -6.9173509    0.9062105    1.0022082    8983.3756   0.76942124 
  110000   -8.3986629    1.4987554   -6.8999075    1.0557992   0.99931486    8983.3756   0.76942124 
  111000   -8.4256955    1.5054547   -6.9202408   0.89981317    1.0037817    8983.3756   0.76942124 
  112000   -8.4120643    1.4829028   -6.9291615   0.95535117   0.98874491    8983.3756   0.76942124 
  113000   -8.4159131    1.4965252   -6.9193878   0.92843964   0.99782784    8983.3756   0.76942124 
  114000   -8.3930022    1.5218537   -6.8711485    1.1732988    1.0147159    8983.3756   0.76942124 
  115000   -8.4057654    1.5234345   -6.8823309    1.0408028      1.01577    8983.3756   0.76942124 
  116000   -8.3954618    1.5007278   -6.8947339    1.1235243      1.00063    8983.3756   0.76942124 
  117000   -8.4037661    1.5055597   -6.8982064    1.1082112    1.0038517    8983.3756   0.76942124 
  118000   -8.4135718    1.5032401   -6.9103316    1.0438177    1.0023051    8983.3756   0.76942124 
  119000   -8.4113152    1.4879377   -6.9233775   0.95489536   0.99210199    8983.3756   0.76942124 
  120000    -8.413621    1.5041319   -6.9094891   0.94815071    1.0028997    8983.3756   0.76942124 
  121000   -8.4095133    1.4973648   -6.9121485    1.0577776   0.99838766    8983.3756   0.76942124 
  122000   -8.4132634    1.5388058   -6.8744576    1.0710309     1.026019    8983.3756   0.76942124 
  123000   -8.4194743    1.5181169   -6.9013574    1.0526426    1.0122244    8983.3756   0.76942124 
  124000   -8.3979161     1.501248   -6.8966681    1.0010835    1.0009768    8983.3756   0.76942124 
  125000   -8.4327493    1.5098426   -6.9229066   0.86483351    1.0067074    8983.3756   0.76942124 
  126000   -8.4206887    1.4906579   -6.9300307   0.94784106   0.99391576    8983.3756   0.76942124 
  127000   -8.4354485    1.5056814   -6.9297672   0.96995955    1.0039328    8983.3756   0.76942124 
  128000   -8.4234895    1.4808443   -6.9426452   0.96601404   0.98737235    8983.3756   0.76942124 
  129000   -8.4283262    1.5047356   -6.9235907    1.0239389    1.0033022    8983.3756   0.76942124 
  130000   -8.4249823    1.5118389   -6.9131434    1.0659191    1.0080384    8983.3756   0.76942124 
  131000   -8.4193851    1.5069611   -6.9124241    1.0420489    1.0047861    8983.3756   0.76942124 
  132000   -8.4031977    1.4952966   -6.9079011    1.0526735   0.99700864    8983.3756   0.76942124 
  133000   -8.4156314     1.516128   -6.8995034    1.0304878    1.0108982    8983.3756   0.76942124 
  134000   -8.4006039    1.5244355   -6.8761684    1.2361261    1.0164374    8983.3756   0.76942124 
  135000   -8.4121409    1.5227729    -6.889368    1.1148944    1.0153289    8983.3756   0.76942124 
  136000   -8.4145875    1.5078666    -6.906721   0.91031199    1.0053898    8983.3756   0.76942124 
  137000   -8.4187041    1.4988254   -6.9198787    1.0275685    0.9993615    8983.3756   0.76942124 
  138000   -8.4298227     1.504162   -6.9256607    1.0153913    1.0029198    8983.3756   0.76942124 
  139000   -8.4286599    1.4957839    -6.932876    1.0496047   0.99733357    8983.3756   0.76942124 
  140000   -8.4333299    1.5072442   -6.9260857   0.93467189    1.0049749    8983.3756   0.76942124 
  141000   -8.4133277    1.4920544   -6.9212733   0.97013098   0.99484686    8983.3756   0.76942124 
  142000   -8.4031177    1.5088866   -6.8942311    1.0540955    1.0060699    8983.3756   0.76942124 
  143000   -8.4266932    1.5319934   -6.8946998    1.0940105    1.0214767    8983.3756   0.76942124 
  144000   -8.4266354    1.5290729   -6.8975625    1.0971744    1.0195294    8983.3756   0.76942124 
  145000   -8.4180726    1.4815076    -6.936565   0.96029021   0.98781463    8983.3756   0.76942124 
  146000   -8.4256084    1.4842513   -6.9413571    1.1429438   0.98964402    8983.3756   0.76942124 
  147000   -8.4209208    1.4984231   -6.9224978    1.0617983   0.99909326    8983.3756   0.76942124 
  148000    -8.408275     1.500337    -6.907938    1.1008229    1.0003694    8983.3756   0.76942124 
  149000   -8.4247407    1.5228852   -6.9018555    0.9694604    1.0154037    8983.3756   0.76942124 
  150000   -8.4261683    1.5311928   -6.8949755    1.0699295    1.0209429    8983.3756   0.76942124 
  151000   -8.4057828    1.5180331   -6.8877498    1.1613271    1.0121685    8983.3756   0.76942124 
  152000   -8.4302174    1.5070628   -6.9231546   0.97497009    1.0048539    8983.3756   0.76942124 
  153000   -8.4101762    1.4760089   -6.9341673    1.0320036   0.98414832    8983.3756   0.76942124 
  154000    -8.427334    1.4856229   -6.9417111   0.96430015   0.99055858    8983.3756   0.76942124 
  155000   -8.4201171    1.4817446   -6.9383724    1.0383366   0.98797268    8983.3756   0.76942124 
  156000   -8.4286214    1.4979922   -6.9306292    1.0225451   0.99880597    8983.3756   0.76942124 
  157000    -8.419627    1.5101064   -6.9095207    1.0998833    1.0068832    8983.3756   0.76942124 
  158000   -8.4330516    1.5377048   -6.8953468    1.1159962    1.0252849    8983.3756   0.76942124 
  159000   -8.4092184    1.5169589   -6.8922595    1.1967139    1.0114523    8983.3756   0.76942124 
  160000   -8.4264677     1.490495   -6.9359726    1.0182251   0.99380714    8983.3756   0.76942124 
  161000   -8.4419614    1.5019895   -6.9399719    1.0325425    1.0014712    8983.3756   0.76942124 
  162000   -8.4352673    1.4899722   -6.9452951   0.95178483   0.99345851    8983.3756   0.76942124 
  163000   -8.4369032    1.4887954   -6.9481078   0.93735277   0.99267388    8983.3756   0.76942124 
  164000   -8.4391224    1.4792352   -6.9598872   0.99889278   0.98629946    8983.3756   0.76942124 
  165000   -8.4243651    1.4923947   -6.9319704    1.1138616   0.99507376    8983.3756   0.76942124 
  166000   -8.4249297    1.5109543   -6.9139754   0.98426703    1.0074486    8983.3756   0.76942124 
  167000   -8.4168294    1.4899384   -6.9268911    1.0688407   0.99343596    8983.3756   0.76942124 
  168000   -8.4311204    1.5247899   -6.9063305   0.94543705    1.0166737    8983.3756   0.76942124 
  169000   -8.4262451     1.518595   -6.9076501    1.1611082    1.0125431    8983.3756   0.76942124 
  170000   -8.4283271    1.5198707   -6.9084564   0.94908266    1.0133937    8983.3756   0.76942124 
  171000   -8.4113312    1.5174777   -6.8938536    1.1477689    1.0117982    8983.3756   0.76942124 
  172000   -8.4348365    1.5093077   -6.9255287   0.99643072    1.0063508    8983.3756   0.76942124 
  173000   -8.4360862    1.5089334   -6.9271529    1.0255039    1.0061011    8983.3756   0.76942124 
  174000   -8.4339795    1.5047244   -6.9292551   0.98236318    1.0032948    8983.3756   0.76942124 
  175000   -8.4511611    1.4932033   -6.9579578   0.83970321   0.99561289    8983.3756   0.76942124 
  176000   -8.4363402    1.4828571   -6.9534831    1.0870567   0.98871446    8983.3756   0.76942124 
  177000   -8.4060441    1.5072131    -6.898831     1.086645    1.0049541    8983.3756   0.76942124 
  178000   -8.4163421    1.5123329   -6.9040091    1.0057903    1.0083678    8983.3756   0.76942124 
  179000   -8.4188186    1.5034466    -6.915372   0.99302851    1.0024427    8983.3756   0.76942124 
  180000   -8.4274719    1.5073478   -6.9201241    1.0378194     1.005044    8983.3756   0.76942124 
  181000   -8.4204091    1.5094392   -6.9109699   0.96841333    1.0064384    8983.3756   0.76942124 
  182000   -8.4166706    1.5088638   -6.9078068   0.99605211    1.0060548    8983.3756   0.76942124 
  183000    -8.405246    1.5234083   -6.8818377    1.0568884    1.0157525    8983.3756   0.76942124 
  184000   -8.4083129     1.503654   -6.9046589    1.0639851     1.002581    8983.3756   0.76942124 
  185000   -8.4262922    1.5106859   -6.9156064    1.1152193    1.0072696    8983.3756   0.76942124 
  186000   -8.4242001    1.4899548   -6.9342454    1.0023224    0.9934469    8983.3756   0.76942124 
  187000   -8.4436774    1.4747648   -6.9689126   0.85517635   0.98331879    8983.3756   0.76942124 
  188000   -8.4398256    1.5090774   -6.9307482    1.0069198    1.0061972    8983.3756   0.76942124 
  189000   -8.4387537    1.5039266   -6.9348271   0.95013416    1.0027628    8983.3756   0.76942124 
  190000    -8.426209    1.4824672   -6.9437418    1.0200552   0.98845448    8983.3756   0.76942124 
  191000   -8.4470634    1.4829892   -6.9640743    1.0243038    0.9888025    8983.3756   0.76942124 
  192000   -8.4358175     1.478898   -6.9569195    1.0371204   0.98607467    8983.3756   0.76942124 
  193000   -8.4349967    1.4889422   -6.9460546   0.95090257   0.99277174    8983.3756   0.76942124 
  194000   -8.4448511    1.5041305   -6.9407206    1.0298749    1.0028988    8983.3756   0.76942124 
  195000   -8.4365079    1.5010292   -6.9354787     1.090059    1.0008309    8983.3756   0.76942124 
  196000    -8.462139    1.5194566   -6.9426824   0.95629559    1.0131176    8983.3756   0.76942124 
  197000    -8.460153    1.5029447   -6.9572083   0.98649996    1.0021081    8983.3756   0.76942124 
  198000   -8.4636831    1.4938627   -6.9698204   0.95807393   0.99605258    8983.3756   0.76942124 
  199000   -8.4777526    1.5100927   -6.9676599   0.89653666    1.0068741    8983.3756   0.76942124 
  200000   -8.4699591    1.4929241    -6.977035    0.9722236   0.99542675    8983.3756   0.76942124 
  201000   -8.4647707    1.4859536   -6.9788172   0.97197403   0.99077907    8983.3756   0.76942124 
  202000   -8.4876466    1.5093625   -6.9782841   0.98655293    1.0063872    8983.3756   0.76942124 
  203000   -8.4698645    1.5043313   -6.9655332    1.0036166    1.0030326    8983.3756   0.76942124 
  204000   -8.4849442    1.5181308   -6.9668135    1.1002462    1.0122336    8983.3756   0.76942124 
  205000    -8.492057    1.5146408   -6.9774162    1.0518428    1.0099067    8983.3756   0.76942124 
  206000   -8.4620258     1.500397   -6.9616288    1.0998088    1.0004094    8983.3756   0.76942124 
  207000   -8.4911822    1.5394572    -6.951725   0.98032206    1.0264533    8983.3756   0.76942124 
  208000   -8.4803611    1.5258009   -6.9545602    1.0704685    1.0173478    8983.3756   0.76942124 
  209000   -8.4744226    1.4954716   -6.9789511    1.1150335    0.9971253    8983.3756   0.76942124 
  210000   -8.4921632    1.5069666   -6.9851966   0.97629875    1.0047898    8983.3756   0.76942124 
  211000    -8.495243    1.5203514   -6.9748916   0.90682905    1.0137143    8983.3756   0.76942124 
  212000   -8.4907642    1.5133017   -6.9774624    0.8932922    1.0090138    8983.3756   0.76942124 
  213000   -8.4759585    1.5097808   -6.9661777    0.8995999    1.0066662    8983.3756   0.76942124 
  214000   -8.4650432    1.5240906   -6.9409526    1.0172769    1.0162074    8983.3756   0.76942124 
  215000   -8.4696366     1.526038   -6.9435986   0.99521034    1.0175059    8983.3756   0.76942124 
  216000   -8.4835163    1.5014657   -6.9820505   0.97402698     1.001122    8983.3756   0.76942124 
  217000   -8.4958478    1.4935748   -7.0022731   0.95701258   0.99586058    8983.3756   0.76942124 
  218000   -8.4975518    1.4957811   -7.0017707    1.0452529   0.99733167    8983.3756   0.76942124 
  219000   -8.4875861    1.4800911    -7.007495    1.0854579   0.98687019    8983.3756   0.76942124 
  220000    -8.504206     1.489232    -7.014974   0.97610096   0.99296498    8983.3756   0.76942124 
  221000   -8.4937256    1.4843763   -7.0093493   0.95922266    0.9897274    8983.3756   0.76942124 
  222000   -8.4943226    1.4949056    -6.999417   0.93529703   0.99674791    8983.3756   0.76942124 
  223000   -8.4817627    1.4981089   -6.9836538    1.0935048    0.9988838    8983.3756   0.76942124 
  224000   -8.4724362    1.4986633   -6.9737728     1.006941   0.99925345    8983.3756   0.76942124 
  225000     -8.49192    1.5070812   -6.9848388   0.96760901    1.0048662    8983.3756   0.76942124 
  226000   -8.4716849    1.4919558   -6.9797291    1.0508094   0.99478114    8983.3756   0.76942124 
  227000   -8.4964352     1.495012   -7.0014232   0.98360758   0.99681887    8983.3756   0.76942124 
  228000   -8.5039376    1.4973773   -7.0065603   0.97855585   0.99839601    8983.3756   0.76942124 
  229000   -8.4977073    1.4696322   -7.0280752   0.93290318   0.97989655    8983.3756   0.76942124 
  230000   -8.4760064    1.4715622   -7.0044442    0.8930045   0.98118339    8983.3756   0.76942124 
  231000   -8.4924487    1.4921919   -7.0002568   0.92826279   0.99493854    8983.3756   0.76942124 
  232000   -8.4912205    1.4922255   -6.9989949   0.89303025   0.99496098    8983.3756   0.76942124 
  233000   -8.4948001     1.485814   -7.0089861    1.0226663   0.99068602    8983.3756   0.76942124 
  234000    -8.500493    1.4852536   -7.0152394   0.94557114   0.99031237    8983.3756   0.76942124 
  235000   -8.4942213     1.491466   -7.0027553    1.0224848   0.99445456    8983.3756   0.76942124 
  236000   -8.5007869    1.4989237   -7.0018632   0.92696352   0.99942705    8983.3756   0.76942124 
  237000   -8.4809851    1.5044045   -6.9765807   0.97551038    1.0030814    8983.3756   0.76942124 
  238000   -8.4722209    1.5232559    -6.948965    1.0546875    1.0156509    8983.3756   0.76942124 
  239000   -8.4619451    1.4958325   -6.9661125    1.0524667   0.99736599    8983.3756   0.76942124 
  240000   -8.4670706    1.4925622   -6.9745085    1.0727035   0.99518541    8983.3756   0.76942124 
  241000   -8.4569739    1.4874423   -6.9695316    1.1003031   0.99177167    8983.3756   0.76942124 
  242000   -8.4865587    1.5179793   -6.9685794    1.0357623    1.0121326    8983.3756   0.76942124 
  243000    -8.483999    1.4847007   -6.9992983    1.0380944   0.98994369    8983.3756   0.76942124 
  244000   -8.4777236    1.4849895   -6.9927341    0.9853194   0.99013625    8983.3756   0.76942124 
  245000   -8.4914695    1.5071279   -6.9843417   0.93673164    1.0048973    8983.3756   0.76942124 
  246000    -8.479429    1.4884549   -6.9909741    1.0016061   0.99244684    8983.3756   0.76942124 
  247000   -8.4836428    1.4888975   -6.9947453   0.92501508   0.99274197    8983.3756   0.76942124 
  248000   -8.4776116    1.4978863   -6.9797254    1.0520995   0.99873533    8983.3756   0.76942124 
  249000   -8.4705257    1.5072173   -6.9633084    1.0551128    1.0049569    8983.3756   0.76942124 
  250000   -8.4784319    1.5293233   -6.9491087    1.0731993    1.0196964    8983.3756   0.76942124 
Loop time of 1257.12 on 2 procs for 200000 steps with 6912 atoms

Performance: 68728.354 tau/day, 159.093 timesteps/s
99.5% CPU use with 2 MPI tasks x no OpenMP threads

MPI task timing breakdown:
Section |  min time  |  avg time  |  max time  |%varavg| %total
---------------------------------------------------------------
Pair    | 892.35     | 992.5      | 1092.6     | 317.9 | 78.95
Neigh   | 109.64     | 117.78     | 125.91     |  75.0 |  9.37
Comm    | 20.063     | 128.67     | 237.27     | 957.4 | 10.23
Output  | 0.66175    | 0.6627     | 0.66365    |   0.1 |  0.05
Modify  | 14.275     | 14.526     | 14.778     |   6.6 |  1.16
Other   |            | 2.996      |            |       |  0.24

Nlocal:    3456 ave 3633 max 3279 min
Histogram: 1 0 0 0 0 0 0 0 0 1
Nghost:    7399.5 ave 7517 max 7282 min
Histogram: 1 0 0 0 0 0 0 0 0 1
Neighs:    309261 ave 344498 max 274024 min
Histogram: 1 0 0 0 0 0 0 0 0 1

Total # of neighbors = 618522
Ave neighs/atom = 89.4852
Neighbor list builds = 10000
Dangerous builds not checked
unfix       intnvt
uncompute   rdfnvt
unfix       rdfnvt
undump      idnvt

next      a
jump      in.melt epsloop
Total wall time: 4:58:40
